Cu                                      
   1.0000000000000000     
    20.0000000000000000    0.0000000000000000    0.0000000000000000
     0.0000000000000000   20.0000000000000000    0.0000000000000000
     0.0000000000000000    0.0000000000000000   20.0000000000000000
   Cu
     8
Direct
  0.5766388326943449  0.5186965717935604  0.5307958015497728
  0.5834486263323226  0.4554942957269931  0.6276287245119626
  0.4161755213769455  0.5452829916677642  0.3723204146158090
  0.3799941053934230  0.4059279001886775  0.5451495289839052
  0.4232209091578765  0.4815627327212950  0.4688011200162873
  0.5136498810449672  0.5526584366673034  0.4344344343653530
  0.6199883928610298  0.5940509473493241  0.4542425562389200
  0.4862012008940824  0.4475922398050859  0.5651840520779827

  0.00000000E+00  0.00000000E+00  0.00000000E+00
  0.00000000E+00  0.00000000E+00  0.00000000E+00
  0.00000000E+00  0.00000000E+00  0.00000000E+00
  0.00000000E+00  0.00000000E+00  0.00000000E+00
  0.00000000E+00  0.00000000E+00  0.00000000E+00
  0.00000000E+00  0.00000000E+00  0.00000000E+00
  0.00000000E+00  0.00000000E+00  0.00000000E+00
  0.00000000E+00  0.00000000E+00  0.00000000E+00
