Mg  O                                   
   1.00000000000000     
    21.1388521970183838    0.0000000000000000    0.0000000000000000
     0.0000000000000000   21.1388521970183838    0.0000000000000000
     0.0000000000000000    0.0000000000000000   30.0000000000000000
   Au
    20
Selective dynamics
Direct
  0.4973078607740788  0.4329002225541956  0.6109144565759266   T   T   T
  0.3273808036869212  0.3142112141931293  0.5761787778171552   T   T   T
  0.5568838102438249  0.5433726471840714  0.5910936214300477   T   T   T
  0.5668168011062420  0.3236774098119710  0.6189181188807780   T   T   T
  0.4492004299875632  0.0971527951457603  0.6012907676800552   T   T   T
  0.6362341546222510  0.2143230178617230  0.6162794714222386   T   T   T
  0.5093239465525059  0.2105054950261831  0.6238029881865970   T   T   T
  0.4286388256952165  0.5405491464011973  0.5905159507096016   T   T   T
  0.6839691606935503  0.5473538478767708  0.5942848589694734   T   T   T
  0.5736804895088312  0.1005645116669598  0.6085345801897191   T   T   T
  0.3704479170432435  0.4302325616068359  0.6049237504621914   T   T   T
  0.8173163350116397  0.3350557643177936  0.5905564636617413   T   T   T
  0.4390288606561938  0.3195664796733979  0.6188311350000575   T   T   T
  0.2521026910599247  0.4161251533509400  0.5790865257953115   T   T   T
  0.6934456646545328  0.3278681408708763  0.6087674836541979   T   T   T
  0.6856760243219497  0.1138741249521544  0.5724958043551212   T   T   T
  0.6248609669843788  0.4351249111247171  0.6063546481713686   T   T   T
  0.7544486010499512  0.4436032580731322  0.5948282011155044   T   T   T
  0.4044862321447340  0.2109392456225905  0.5746741609765138   T   T   T
  0.7575503855688197  0.2212257774934230  0.5831332101509190   T   T   T
 
  0.00000000E+00  0.00000000E+00  0.00000000E+00
  0.00000000E+00  0.00000000E+00  0.00000000E+00
  0.00000000E+00  0.00000000E+00  0.00000000E+00
  0.00000000E+00  0.00000000E+00  0.00000000E+00
  0.00000000E+00  0.00000000E+00  0.00000000E+00
  0.00000000E+00  0.00000000E+00  0.00000000E+00
  0.00000000E+00  0.00000000E+00  0.00000000E+00
  0.00000000E+00  0.00000000E+00  0.00000000E+00
  0.00000000E+00  0.00000000E+00  0.00000000E+00
  0.00000000E+00  0.00000000E+00  0.00000000E+00
  0.00000000E+00  0.00000000E+00  0.00000000E+00
  0.00000000E+00  0.00000000E+00  0.00000000E+00
  0.00000000E+00  0.00000000E+00  0.00000000E+00
  0.00000000E+00  0.00000000E+00  0.00000000E+00
  0.00000000E+00  0.00000000E+00  0.00000000E+00
  0.00000000E+00  0.00000000E+00  0.00000000E+00
  0.00000000E+00  0.00000000E+00  0.00000000E+00
  0.00000000E+00  0.00000000E+00  0.00000000E+00
  0.00000000E+00  0.00000000E+00  0.00000000E+00
  0.00000000E+00  0.00000000E+00  0.00000000E+00
