Ag                                      
   1.0000000000000000     
    20.0000000000000000    0.0000000000000000    0.0000000000000000
     0.0000000000000000   20.0000000000000000    0.0000000000000000
     0.0000000000000000    0.0000000000000000   20.0000000000000000
   Ag
     6
Direct
  0.5262950387575671  0.5282146720140162  0.5574873667651303
  0.3988463974843626  0.5760623613889422  0.5572653285936084
  0.4645085354372966  0.5429368755456210  0.4427399618335741
  0.4197585350670963  0.4387892176708306  0.5284978360032255
  0.5360494004844156  0.4218565039624593  0.4637958673903242
  0.6006334473392627  0.5464717922131328  0.4448744084791372

  0.00000000E+00  0.00000000E+00  0.00000000E+00
  0.00000000E+00  0.00000000E+00  0.00000000E+00
  0.00000000E+00  0.00000000E+00  0.00000000E+00
  0.00000000E+00  0.00000000E+00  0.00000000E+00
  0.00000000E+00  0.00000000E+00  0.00000000E+00
  0.00000000E+00  0.00000000E+00  0.00000000E+00
