ag4                                     
   1.0000000000000000     
    20.0000000000000000    0.0000000000000000    0.0000000000000000
     0.0000000000000000   20.0000000000000000    0.0000000000000000
     0.0000000000000000    0.0000000000000000   20.0000000000000000
   Ag
     4
Direct
  0.9992404383560256  0.0000000000000000  0.0000000000000000
  0.1280480177419392  0.0000000000000000  0.0000000000000000
  0.2619519822580614  0.0000000000000000  0.0000000000000000
  0.3907595616439750  0.0000000000000000  0.0000000000000000

  0.00000000E+00  0.00000000E+00  0.00000000E+00
  0.00000000E+00  0.00000000E+00  0.00000000E+00
  0.00000000E+00  0.00000000E+00  0.00000000E+00
  0.00000000E+00  0.00000000E+00  0.00000000E+00
