Cu                                      
   1.00000000000000     
    20.0000000000000000    0.0000000000000000    0.0000000000000000
     0.0000000000000000   20.0000000000000000    0.0000000000000000
     0.0000000000000000    0.0000000000000000   20.0000000000000000
   Cu
     8
Direct
  0.5766388326943428  0.5186965717935621  0.5307958015497718
  0.5834486263323200  0.4554942957269930  0.6276287245119647
  0.4161755213769425  0.5452829916677615  0.3723204146158068
  0.3799941053934219  0.4059279001886793  0.5451495289839059
  0.4232209091578767  0.4815627327212937  0.4688011200162876
  0.5136498810449694  0.5526584366673006  0.4344344343653503
  0.6199883928610319  0.5940509473493236  0.4542425562389170
  0.4862012008940795  0.4475922398050827  0.5651840520779814
 
  0.00000000E+00  0.00000000E+00  0.00000000E+00
  0.00000000E+00  0.00000000E+00  0.00000000E+00
  0.00000000E+00  0.00000000E+00  0.00000000E+00
  0.00000000E+00  0.00000000E+00  0.00000000E+00
  0.00000000E+00  0.00000000E+00  0.00000000E+00
  0.00000000E+00  0.00000000E+00  0.00000000E+00
  0.00000000E+00  0.00000000E+00  0.00000000E+00
  0.00000000E+00  0.00000000E+00  0.00000000E+00
