Au Mg  O                                
   1.0000000000000000     
    21.1388521970183838    0.0000000000000000    0.0000000000000000
     0.0000000000000000   21.1388521970183838    0.0000000000000000
     0.0000000000000000    0.0000000000000000   22.1138852197018352
   Au   Mg   O 
     4   100   100
Selective dynamics
Direct
  0.3999512008044346  0.4252429537329045  0.6033019755531901   T   T   T
  0.3999572962124070  0.5096751291862434  0.6841795809377500   T   T   T
  0.4000533549375037  0.6325841737763951  0.7131450520288247   T   T   T
  0.3999724663981484  0.6047599388569959  0.5999630435646126   T   T   T
  0.0000000000000000  0.0000000000000000  0.4069841147579822   F   F   F
  0.1000000000000014  0.1000000000000014  0.4069841147579822   F   F   F
  0.0000000000000000  0.1000000000000014  0.5025749708513558   F   F   F
  0.1000000000000014  0.0000000000000000  0.5025749708513558   F   F   F
  0.0000000000000000  0.2000000000000028  0.4069841147579822   F   F   F
  0.1000000000000014  0.2999999999999972  0.4069841147579822   F   F   F
  0.0000000000000000  0.2999999999999972  0.5025749708513558   F   F   F
  0.1000000000000014  0.2000000000000028  0.5025749708513558   F   F   F
  0.0000000000000000  0.3999999999999986  0.4069841147579822   F   F   F
  0.1000000000000014  0.5000000000000000  0.4069841147579822   F   F   F
  0.0000000000000000  0.5000000000000000  0.5025749708513558   F   F   F
  0.1000000000000014  0.3999999999999986  0.5025749708513558   F   F   F
  0.0000000000000000  0.6000000000000014  0.4069841147579822   F   F   F
  0.1000000000000014  0.7000000000000028  0.4069841147579822   F   F   F
  0.0000000000000000  0.7000000000000028  0.5025749708513558   F   F   F
  0.1000000000000014  0.6000000000000014  0.5025749708513558   F   F   F
  0.0000000000000000  0.7999999999999972  0.4069841147579822   F   F   F
  0.1000000000000014  0.8999999999999986  0.4069841147579822   F   F   F
  0.0000000000000000  0.8999999999999986  0.5025749708513558   F   F   F
  0.1000000000000014  0.7999999999999972  0.5025749708513558   F   F   F
  0.2000000000000028  0.0000000000000000  0.4069841147579822   F   F   F
  0.2999999999999972  0.1000000000000014  0.4069841147579822   F   F   F
  0.2000000000000028  0.1000000000000014  0.5025749708513558   F   F   F
  0.2999999999999972  0.0000000000000000  0.5025749708513558   F   F   F
  0.2000000000000028  0.2000000000000028  0.4069841147579822   F   F   F
  0.2999999999999972  0.2999999999999972  0.4069841147579822   F   F   F
  0.2000000000000028  0.2999999999999972  0.5025749708513558   F   F   F
  0.2999999999999972  0.2000000000000028  0.5025749708513558   F   F   F
  0.2000000000000028  0.3999999999999986  0.4069841147579822   F   F   F
  0.2999999999999972  0.5000000000000000  0.4069841147579822   F   F   F
  0.2000000000000028  0.5000000000000000  0.5025749708513558   F   F   F
  0.2999999999999972  0.3999999999999986  0.5025749708513558   F   F   F
  0.2000000000000028  0.6000000000000014  0.4069841147579822   F   F   F
  0.2999999999999972  0.7000000000000028  0.4069841147579822   F   F   F
  0.2000000000000028  0.7000000000000028  0.5025749708513558   F   F   F
  0.2999999999999972  0.6000000000000014  0.5025749708513558   F   F   F
  0.2000000000000028  0.7999999999999972  0.4069841147579822   F   F   F
  0.2999999999999972  0.8999999999999986  0.4069841147579822   F   F   F
  0.2000000000000028  0.8999999999999986  0.5025749708513558   F   F   F
  0.2999999999999972  0.7999999999999972  0.5025749708513558   F   F   F
  0.3999999999999986  0.0000000000000000  0.4069841147579822   F   F   F
  0.5000000000000000  0.1000000000000014  0.4069841147579822   F   F   F
  0.3999999999999986  0.1000000000000014  0.5025749708513558   F   F   F
  0.5000000000000000  0.0000000000000000  0.5025749708513558   F   F   F
  0.3999999999999986  0.2000000000000028  0.4069841147579822   F   F   F
  0.5000000000000000  0.2999999999999972  0.4069841147579822   F   F   F
  0.3999999999999986  0.2999999999999972  0.5025749708513558   F   F   F
  0.5000000000000000  0.2000000000000028  0.5025749708513558   F   F   F
  0.3999999999999986  0.3999999999999986  0.4069841147579822   F   F   F
  0.5000000000000000  0.5000000000000000  0.4069841147579822   F   F   F
  0.3999999999999986  0.5000000000000000  0.5025749708513558   F   F   F
  0.5000000000000000  0.3999999999999986  0.5025749708513558   F   F   F
  0.3999999999999986  0.6000000000000014  0.4069841147579822   F   F   F
  0.5000000000000000  0.7000000000000028  0.4069841147579822   F   F   F
  0.3999999999999986  0.7000000000000028  0.5025749708513558   F   F   F
  0.5000000000000000  0.6000000000000014  0.5025749708513558   F   F   F
  0.3999999999999986  0.7999999999999972  0.4069841147579822   F   F   F
  0.5000000000000000  0.8999999999999986  0.4069841147579822   F   F   F
  0.3999999999999986  0.8999999999999986  0.5025749708513558   F   F   F
  0.5000000000000000  0.7999999999999972  0.5025749708513558   F   F   F
  0.6000000000000014  0.0000000000000000  0.4069841147579822   F   F   F
  0.7000000000000028  0.1000000000000014  0.4069841147579822   F   F   F
  0.6000000000000014  0.1000000000000014  0.5025749708513558   F   F   F
  0.7000000000000028  0.0000000000000000  0.5025749708513558   F   F   F
  0.6000000000000014  0.2000000000000028  0.4069841147579822   F   F   F
  0.7000000000000028  0.2999999999999972  0.4069841147579822   F   F   F
  0.6000000000000014  0.2999999999999972  0.5025749708513558   F   F   F
  0.7000000000000028  0.2000000000000028  0.5025749708513558   F   F   F
  0.6000000000000014  0.3999999999999986  0.4069841147579822   F   F   F
  0.7000000000000028  0.5000000000000000  0.4069841147579822   F   F   F
  0.6000000000000014  0.5000000000000000  0.5025749708513558   F   F   F
  0.7000000000000028  0.3999999999999986  0.5025749708513558   F   F   F
  0.6000000000000014  0.6000000000000014  0.4069841147579822   F   F   F
  0.7000000000000028  0.7000000000000028  0.4069841147579822   F   F   F
  0.6000000000000014  0.7000000000000028  0.5025749708513558   F   F   F
  0.7000000000000028  0.6000000000000014  0.5025749708513558   F   F   F
  0.6000000000000014  0.7999999999999972  0.4069841147579822   F   F   F
  0.7000000000000028  0.8999999999999986  0.4069841147579822   F   F   F
  0.6000000000000014  0.8999999999999986  0.5025749708513558   F   F   F
  0.7000000000000028  0.7999999999999972  0.5025749708513558   F   F   F
  0.7999999999999972  0.0000000000000000  0.4069841147579822   F   F   F
  0.8999999999999986  0.1000000000000014  0.4069841147579822   F   F   F
  0.7999999999999972  0.1000000000000014  0.5025749708513558   F   F   F
  0.8999999999999986  0.0000000000000000  0.5025749708513558   F   F   F
  0.7999999999999972  0.2000000000000028  0.4069841147579822   F   F   F
  0.8999999999999986  0.2999999999999972  0.4069841147579822   F   F   F
  0.7999999999999972  0.2999999999999972  0.5025749708513558   F   F   F
  0.8999999999999986  0.2000000000000028  0.5025749708513558   F   F   F
  0.7999999999999972  0.3999999999999986  0.4069841147579822   F   F   F
  0.8999999999999986  0.5000000000000000  0.4069841147579822   F   F   F
  0.7999999999999972  0.5000000000000000  0.5025749708513558   F   F   F
  0.8999999999999986  0.3999999999999986  0.5025749708513558   F   F   F
  0.7999999999999972  0.6000000000000014  0.4069841147579822   F   F   F
  0.8999999999999986  0.7000000000000028  0.4069841147579822   F   F   F
  0.7999999999999972  0.7000000000000028  0.5025749708513558   F   F   F
  0.8999999999999986  0.6000000000000014  0.5025749708513558   F   F   F
  0.7999999999999972  0.7999999999999972  0.4069841147579822   F   F   F
  0.8999999999999986  0.8999999999999986  0.4069841147579822   F   F   F
  0.7999999999999972  0.8999999999999986  0.5025749708513558   F   F   F
  0.8999999999999986  0.7999999999999972  0.5025749708513558   F   F   F
  0.0000000000000000  0.0000000000000000  0.5025749708513558   F   F   F
  0.1000000000000014  0.1000000000000014  0.5025749708513558   F   F   F
  0.0000000000000000  0.1000000000000014  0.4069841147579822   F   F   F
  0.1000000000000014  0.0000000000000000  0.4069841147579822   F   F   F
  0.0000000000000000  0.2000000000000028  0.5025749708513558   F   F   F
  0.1000000000000014  0.2999999999999972  0.5025749708513558   F   F   F
  0.0000000000000000  0.2999999999999972  0.4069841147579822   F   F   F
  0.1000000000000014  0.2000000000000028  0.4069841147579822   F   F   F
  0.0000000000000000  0.3999999999999986  0.5025749708513558   F   F   F
  0.1000000000000014  0.5000000000000000  0.5025749708513558   F   F   F
  0.0000000000000000  0.5000000000000000  0.4069841147579822   F   F   F
  0.1000000000000014  0.3999999999999986  0.4069841147579822   F   F   F
  0.0000000000000000  0.6000000000000014  0.5025749708513558   F   F   F
  0.1000000000000014  0.7000000000000028  0.5025749708513558   F   F   F
  0.0000000000000000  0.7000000000000028  0.4069841147579822   F   F   F
  0.1000000000000014  0.6000000000000014  0.4069841147579822   F   F   F
  0.0000000000000000  0.7999999999999972  0.5025749708513558   F   F   F
  0.1000000000000014  0.8999999999999986  0.5025749708513558   F   F   F
  0.0000000000000000  0.8999999999999986  0.4069841147579822   F   F   F
  0.1000000000000014  0.7999999999999972  0.4069841147579822   F   F   F
  0.2000000000000028  0.0000000000000000  0.5025749708513558   F   F   F
  0.2999999999999972  0.1000000000000014  0.5025749708513558   F   F   F
  0.2000000000000028  0.1000000000000014  0.4069841147579822   F   F   F
  0.2999999999999972  0.0000000000000000  0.4069841147579822   F   F   F
  0.2000000000000028  0.2000000000000028  0.5025749708513558   F   F   F
  0.2999999999999972  0.2999999999999972  0.5025749708513558   F   F   F
  0.2000000000000028  0.2999999999999972  0.4069841147579822   F   F   F
  0.2999999999999972  0.2000000000000028  0.4069841147579822   F   F   F
  0.2000000000000028  0.3999999999999986  0.5025749708513558   F   F   F
  0.2999999999999972  0.5000000000000000  0.5025749708513558   F   F   F
  0.2000000000000028  0.5000000000000000  0.4069841147579822   F   F   F
  0.2999999999999972  0.3999999999999986  0.4069841147579822   F   F   F
  0.2000000000000028  0.6000000000000014  0.5025749708513558   F   F   F
  0.2999999999999972  0.7000000000000028  0.5025749708513558   F   F   F
  0.2000000000000028  0.7000000000000028  0.4069841147579822   F   F   F
  0.2999999999999972  0.6000000000000014  0.4069841147579822   F   F   F
  0.2000000000000028  0.7999999999999972  0.5025749708513558   F   F   F
  0.2999999999999972  0.8999999999999986  0.5025749708513558   F   F   F
  0.2000000000000028  0.8999999999999986  0.4069841147579822   F   F   F
  0.2999999999999972  0.7999999999999972  0.4069841147579822   F   F   F
  0.3999999999999986  0.0000000000000000  0.5025749708513558   F   F   F
  0.5000000000000000  0.1000000000000014  0.5025749708513558   F   F   F
  0.3999999999999986  0.1000000000000014  0.4069841147579822   F   F   F
  0.5000000000000000  0.0000000000000000  0.4069841147579822   F   F   F
  0.3999999999999986  0.2000000000000028  0.5025749708513558   F   F   F
  0.5000000000000000  0.2999999999999972  0.5025749708513558   F   F   F
  0.3999999999999986  0.2999999999999972  0.4069841147579822   F   F   F
  0.5000000000000000  0.2000000000000028  0.4069841147579822   F   F   F
  0.3999999999999986  0.3999999999999986  0.5025749708513558   F   F   F
  0.5000000000000000  0.5000000000000000  0.5025749708513558   F   F   F
  0.3999999999999986  0.5000000000000000  0.4069841147579822   F   F   F
  0.5000000000000000  0.3999999999999986  0.4069841147579822   F   F   F
  0.3999999999999986  0.6000000000000014  0.5025749708513558   F   F   F
  0.5000000000000000  0.7000000000000028  0.5025749708513558   F   F   F
  0.3999999999999986  0.7000000000000028  0.4069841147579822   F   F   F
  0.5000000000000000  0.6000000000000014  0.4069841147579822   F   F   F
  0.3999999999999986  0.7999999999999972  0.5025749708513558   F   F   F
  0.5000000000000000  0.8999999999999986  0.5025749708513558   F   F   F
  0.3999999999999986  0.8999999999999986  0.4069841147579822   F   F   F
  0.5000000000000000  0.7999999999999972  0.4069841147579822   F   F   F
  0.6000000000000014  0.0000000000000000  0.5025749708513558   F   F   F
  0.7000000000000028  0.1000000000000014  0.5025749708513558   F   F   F
  0.6000000000000014  0.1000000000000014  0.4069841147579822   F   F   F
  0.7000000000000028  0.0000000000000000  0.4069841147579822   F   F   F
  0.6000000000000014  0.2000000000000028  0.5025749708513558   F   F   F
  0.7000000000000028  0.2999999999999972  0.5025749708513558   F   F   F
  0.6000000000000014  0.2999999999999972  0.4069841147579822   F   F   F
  0.7000000000000028  0.2000000000000028  0.4069841147579822   F   F   F
  0.6000000000000014  0.3999999999999986  0.5025749708513558   F   F   F
  0.7000000000000028  0.5000000000000000  0.5025749708513558   F   F   F
  0.6000000000000014  0.5000000000000000  0.4069841147579822   F   F   F
  0.7000000000000028  0.3999999999999986  0.4069841147579822   F   F   F
  0.6000000000000014  0.6000000000000014  0.5025749708513558   F   F   F
  0.7000000000000028  0.7000000000000028  0.5025749708513558   F   F   F
  0.6000000000000014  0.7000000000000028  0.4069841147579822   F   F   F
  0.7000000000000028  0.6000000000000014  0.4069841147579822   F   F   F
  0.6000000000000014  0.7999999999999972  0.5025749708513558   F   F   F
  0.7000000000000028  0.8999999999999986  0.5025749708513558   F   F   F
  0.6000000000000014  0.8999999999999986  0.4069841147579822   F   F   F
  0.7000000000000028  0.7999999999999972  0.4069841147579822   F   F   F
  0.7999999999999972  0.0000000000000000  0.5025749708513558   F   F   F
  0.8999999999999986  0.1000000000000014  0.5025749708513558   F   F   F
  0.7999999999999972  0.1000000000000014  0.4069841147579822   F   F   F
  0.8999999999999986  0.0000000000000000  0.4069841147579822   F   F   F
  0.7999999999999972  0.2000000000000028  0.5025749708513558   F   F   F
  0.8999999999999986  0.2999999999999972  0.5025749708513558   F   F   F
  0.7999999999999972  0.2999999999999972  0.4069841147579822   F   F   F
  0.8999999999999986  0.2000000000000028  0.4069841147579822   F   F   F
  0.7999999999999972  0.3999999999999986  0.5025749708513558   F   F   F
  0.8999999999999986  0.5000000000000000  0.5025749708513558   F   F   F
  0.7999999999999972  0.5000000000000000  0.4069841147579822   F   F   F
  0.8999999999999986  0.3999999999999986  0.4069841147579822   F   F   F
  0.7999999999999972  0.6000000000000014  0.5025749708513558   F   F   F
  0.8999999999999986  0.7000000000000028  0.5025749708513558   F   F   F
  0.7999999999999972  0.7000000000000028  0.4069841147579822   F   F   F
  0.8999999999999986  0.6000000000000014  0.4069841147579822   F   F   F
  0.7999999999999972  0.7999999999999972  0.5025749708513558   F   F   F
  0.8999999999999986  0.8999999999999986  0.5025749708513558   F   F   F
  0.7999999999999972  0.8999999999999986  0.4069841147579822   F   F   F
  0.8999999999999986  0.7999999999999972  0.4069841147579822   F   F   F

  0.00000000E+00  0.00000000E+00  0.00000000E+00
  0.00000000E+00  0.00000000E+00  0.00000000E+00
  0.00000000E+00  0.00000000E+00  0.00000000E+00
  0.00000000E+00  0.00000000E+00  0.00000000E+00
  0.00000000E+00  0.00000000E+00  0.00000000E+00
  0.00000000E+00  0.00000000E+00  0.00000000E+00
  0.00000000E+00  0.00000000E+00  0.00000000E+00
  0.00000000E+00  0.00000000E+00  0.00000000E+00
  0.00000000E+00  0.00000000E+00  0.00000000E+00
  0.00000000E+00  0.00000000E+00  0.00000000E+00
  0.00000000E+00  0.00000000E+00  0.00000000E+00
  0.00000000E+00  0.00000000E+00  0.00000000E+00
  0.00000000E+00  0.00000000E+00  0.00000000E+00
  0.00000000E+00  0.00000000E+00  0.00000000E+00
  0.00000000E+00  0.00000000E+00  0.00000000E+00
  0.00000000E+00  0.00000000E+00  0.00000000E+00
  0.00000000E+00  0.00000000E+00  0.00000000E+00
  0.00000000E+00  0.00000000E+00  0.00000000E+00
  0.00000000E+00  0.00000000E+00  0.00000000E+00
  0.00000000E+00  0.00000000E+00  0.00000000E+00
  0.00000000E+00  0.00000000E+00  0.00000000E+00
  0.00000000E+00  0.00000000E+00  0.00000000E+00
  0.00000000E+00  0.00000000E+00  0.00000000E+00
  0.00000000E+00  0.00000000E+00  0.00000000E+00
  0.00000000E+00  0.00000000E+00  0.00000000E+00
  0.00000000E+00  0.00000000E+00  0.00000000E+00
  0.00000000E+00  0.00000000E+00  0.00000000E+00
  0.00000000E+00  0.00000000E+00  0.00000000E+00
  0.00000000E+00  0.00000000E+00  0.00000000E+00
  0.00000000E+00  0.00000000E+00  0.00000000E+00
  0.00000000E+00  0.00000000E+00  0.00000000E+00
  0.00000000E+00  0.00000000E+00  0.00000000E+00
  0.00000000E+00  0.00000000E+00  0.00000000E+00
  0.00000000E+00  0.00000000E+00  0.00000000E+00
  0.00000000E+00  0.00000000E+00  0.00000000E+00
  0.00000000E+00  0.00000000E+00  0.00000000E+00
  0.00000000E+00  0.00000000E+00  0.00000000E+00
  0.00000000E+00  0.00000000E+00  0.00000000E+00
  0.00000000E+00  0.00000000E+00  0.00000000E+00
  0.00000000E+00  0.00000000E+00  0.00000000E+00
  0.00000000E+00  0.00000000E+00  0.00000000E+00
  0.00000000E+00  0.00000000E+00  0.00000000E+00
  0.00000000E+00  0.00000000E+00  0.00000000E+00
  0.00000000E+00  0.00000000E+00  0.00000000E+00
  0.00000000E+00  0.00000000E+00  0.00000000E+00
  0.00000000E+00  0.00000000E+00  0.00000000E+00
  0.00000000E+00  0.00000000E+00  0.00000000E+00
  0.00000000E+00  0.00000000E+00  0.00000000E+00
  0.00000000E+00  0.00000000E+00  0.00000000E+00
  0.00000000E+00  0.00000000E+00  0.00000000E+00
  0.00000000E+00  0.00000000E+00  0.00000000E+00
  0.00000000E+00  0.00000000E+00  0.00000000E+00
  0.00000000E+00  0.00000000E+00  0.00000000E+00
  0.00000000E+00  0.00000000E+00  0.00000000E+00
  0.00000000E+00  0.00000000E+00  0.00000000E+00
  0.00000000E+00  0.00000000E+00  0.00000000E+00
  0.00000000E+00  0.00000000E+00  0.00000000E+00
  0.00000000E+00  0.00000000E+00  0.00000000E+00
  0.00000000E+00  0.00000000E+00  0.00000000E+00
  0.00000000E+00  0.00000000E+00  0.00000000E+00
  0.00000000E+00  0.00000000E+00  0.00000000E+00
  0.00000000E+00  0.00000000E+00  0.00000000E+00
  0.00000000E+00  0.00000000E+00  0.00000000E+00
  0.00000000E+00  0.00000000E+00  0.00000000E+00
  0.00000000E+00  0.00000000E+00  0.00000000E+00
  0.00000000E+00  0.00000000E+00  0.00000000E+00
  0.00000000E+00  0.00000000E+00  0.00000000E+00
  0.00000000E+00  0.00000000E+00  0.00000000E+00
  0.00000000E+00  0.00000000E+00  0.00000000E+00
  0.00000000E+00  0.00000000E+00  0.00000000E+00
  0.00000000E+00  0.00000000E+00  0.00000000E+00
  0.00000000E+00  0.00000000E+00  0.00000000E+00
  0.00000000E+00  0.00000000E+00  0.00000000E+00
  0.00000000E+00  0.00000000E+00  0.00000000E+00
  0.00000000E+00  0.00000000E+00  0.00000000E+00
  0.00000000E+00  0.00000000E+00  0.00000000E+00
  0.00000000E+00  0.00000000E+00  0.00000000E+00
  0.00000000E+00  0.00000000E+00  0.00000000E+00
  0.00000000E+00  0.00000000E+00  0.00000000E+00
  0.00000000E+00  0.00000000E+00  0.00000000E+00
  0.00000000E+00  0.00000000E+00  0.00000000E+00
  0.00000000E+00  0.00000000E+00  0.00000000E+00
  0.00000000E+00  0.00000000E+00  0.00000000E+00
  0.00000000E+00  0.00000000E+00  0.00000000E+00
  0.00000000E+00  0.00000000E+00  0.00000000E+00
  0.00000000E+00  0.00000000E+00  0.00000000E+00
  0.00000000E+00  0.00000000E+00  0.00000000E+00
  0.00000000E+00  0.00000000E+00  0.00000000E+00
  0.00000000E+00  0.00000000E+00  0.00000000E+00
  0.00000000E+00  0.00000000E+00  0.00000000E+00
  0.00000000E+00  0.00000000E+00  0.00000000E+00
  0.00000000E+00  0.00000000E+00  0.00000000E+00
  0.00000000E+00  0.00000000E+00  0.00000000E+00
  0.00000000E+00  0.00000000E+00  0.00000000E+00
  0.00000000E+00  0.00000000E+00  0.00000000E+00
  0.00000000E+00  0.00000000E+00  0.00000000E+00
  0.00000000E+00  0.00000000E+00  0.00000000E+00
  0.00000000E+00  0.00000000E+00  0.00000000E+00
  0.00000000E+00  0.00000000E+00  0.00000000E+00
  0.00000000E+00  0.00000000E+00  0.00000000E+00
  0.00000000E+00  0.00000000E+00  0.00000000E+00
  0.00000000E+00  0.00000000E+00  0.00000000E+00
  0.00000000E+00  0.00000000E+00  0.00000000E+00
  0.00000000E+00  0.00000000E+00  0.00000000E+00
  0.00000000E+00  0.00000000E+00  0.00000000E+00
  0.00000000E+00  0.00000000E+00  0.00000000E+00
  0.00000000E+00  0.00000000E+00  0.00000000E+00
  0.00000000E+00  0.00000000E+00  0.00000000E+00
  0.00000000E+00  0.00000000E+00  0.00000000E+00
  0.00000000E+00  0.00000000E+00  0.00000000E+00
  0.00000000E+00  0.00000000E+00  0.00000000E+00
  0.00000000E+00  0.00000000E+00  0.00000000E+00
  0.00000000E+00  0.00000000E+00  0.00000000E+00
  0.00000000E+00  0.00000000E+00  0.00000000E+00
  0.00000000E+00  0.00000000E+00  0.00000000E+00
  0.00000000E+00  0.00000000E+00  0.00000000E+00
  0.00000000E+00  0.00000000E+00  0.00000000E+00
  0.00000000E+00  0.00000000E+00  0.00000000E+00
  0.00000000E+00  0.00000000E+00  0.00000000E+00
  0.00000000E+00  0.00000000E+00  0.00000000E+00
  0.00000000E+00  0.00000000E+00  0.00000000E+00
  0.00000000E+00  0.00000000E+00  0.00000000E+00
  0.00000000E+00  0.00000000E+00  0.00000000E+00
  0.00000000E+00  0.00000000E+00  0.00000000E+00
  0.00000000E+00  0.00000000E+00  0.00000000E+00
  0.00000000E+00  0.00000000E+00  0.00000000E+00
  0.00000000E+00  0.00000000E+00  0.00000000E+00
  0.00000000E+00  0.00000000E+00  0.00000000E+00
  0.00000000E+00  0.00000000E+00  0.00000000E+00
  0.00000000E+00  0.00000000E+00  0.00000000E+00
  0.00000000E+00  0.00000000E+00  0.00000000E+00
  0.00000000E+00  0.00000000E+00  0.00000000E+00
  0.00000000E+00  0.00000000E+00  0.00000000E+00
  0.00000000E+00  0.00000000E+00  0.00000000E+00
  0.00000000E+00  0.00000000E+00  0.00000000E+00
  0.00000000E+00  0.00000000E+00  0.00000000E+00
  0.00000000E+00  0.00000000E+00  0.00000000E+00
  0.00000000E+00  0.00000000E+00  0.00000000E+00
  0.00000000E+00  0.00000000E+00  0.00000000E+00
  0.00000000E+00  0.00000000E+00  0.00000000E+00
  0.00000000E+00  0.00000000E+00  0.00000000E+00
  0.00000000E+00  0.00000000E+00  0.00000000E+00
  0.00000000E+00  0.00000000E+00  0.00000000E+00
  0.00000000E+00  0.00000000E+00  0.00000000E+00
  0.00000000E+00  0.00000000E+00  0.00000000E+00
  0.00000000E+00  0.00000000E+00  0.00000000E+00
  0.00000000E+00  0.00000000E+00  0.00000000E+00
  0.00000000E+00  0.00000000E+00  0.00000000E+00
  0.00000000E+00  0.00000000E+00  0.00000000E+00
  0.00000000E+00  0.00000000E+00  0.00000000E+00
  0.00000000E+00  0.00000000E+00  0.00000000E+00
  0.00000000E+00  0.00000000E+00  0.00000000E+00
  0.00000000E+00  0.00000000E+00  0.00000000E+00
  0.00000000E+00  0.00000000E+00  0.00000000E+00
  0.00000000E+00  0.00000000E+00  0.00000000E+00
  0.00000000E+00  0.00000000E+00  0.00000000E+00
  0.00000000E+00  0.00000000E+00  0.00000000E+00
  0.00000000E+00  0.00000000E+00  0.00000000E+00
  0.00000000E+00  0.00000000E+00  0.00000000E+00
  0.00000000E+00  0.00000000E+00  0.00000000E+00
  0.00000000E+00  0.00000000E+00  0.00000000E+00
  0.00000000E+00  0.00000000E+00  0.00000000E+00
  0.00000000E+00  0.00000000E+00  0.00000000E+00
  0.00000000E+00  0.00000000E+00  0.00000000E+00
  0.00000000E+00  0.00000000E+00  0.00000000E+00
  0.00000000E+00  0.00000000E+00  0.00000000E+00
  0.00000000E+00  0.00000000E+00  0.00000000E+00
  0.00000000E+00  0.00000000E+00  0.00000000E+00
  0.00000000E+00  0.00000000E+00  0.00000000E+00
  0.00000000E+00  0.00000000E+00  0.00000000E+00
  0.00000000E+00  0.00000000E+00  0.00000000E+00
  0.00000000E+00  0.00000000E+00  0.00000000E+00
  0.00000000E+00  0.00000000E+00  0.00000000E+00
  0.00000000E+00  0.00000000E+00  0.00000000E+00
  0.00000000E+00  0.00000000E+00  0.00000000E+00
  0.00000000E+00  0.00000000E+00  0.00000000E+00
  0.00000000E+00  0.00000000E+00  0.00000000E+00
  0.00000000E+00  0.00000000E+00  0.00000000E+00
  0.00000000E+00  0.00000000E+00  0.00000000E+00
  0.00000000E+00  0.00000000E+00  0.00000000E+00
  0.00000000E+00  0.00000000E+00  0.00000000E+00
  0.00000000E+00  0.00000000E+00  0.00000000E+00
  0.00000000E+00  0.00000000E+00  0.00000000E+00
  0.00000000E+00  0.00000000E+00  0.00000000E+00
  0.00000000E+00  0.00000000E+00  0.00000000E+00
  0.00000000E+00  0.00000000E+00  0.00000000E+00
  0.00000000E+00  0.00000000E+00  0.00000000E+00
  0.00000000E+00  0.00000000E+00  0.00000000E+00
  0.00000000E+00  0.00000000E+00  0.00000000E+00
  0.00000000E+00  0.00000000E+00  0.00000000E+00
  0.00000000E+00  0.00000000E+00  0.00000000E+00
  0.00000000E+00  0.00000000E+00  0.00000000E+00
  0.00000000E+00  0.00000000E+00  0.00000000E+00
  0.00000000E+00  0.00000000E+00  0.00000000E+00
  0.00000000E+00  0.00000000E+00  0.00000000E+00
  0.00000000E+00  0.00000000E+00  0.00000000E+00
  0.00000000E+00  0.00000000E+00  0.00000000E+00
  0.00000000E+00  0.00000000E+00  0.00000000E+00
  0.00000000E+00  0.00000000E+00  0.00000000E+00
  0.00000000E+00  0.00000000E+00  0.00000000E+00
  0.00000000E+00  0.00000000E+00  0.00000000E+00
  0.00000000E+00  0.00000000E+00  0.00000000E+00
  0.00000000E+00  0.00000000E+00  0.00000000E+00
  0.00000000E+00  0.00000000E+00  0.00000000E+00
