ag4                                     
   1.0000000000000000     
    20.0000000000000000    0.0000000000000000    0.0000000000000000
     0.0000000000000000   20.0000000000000000    0.0000000000000000
     0.0000000000000000    0.0000000000000000   20.0000000000000000
   Ag
     4
Direct
  0.0292593484879260  0.0195552104501162  0.0543925048876824
  0.9706364865036265  0.9805563505203141  0.9456214209107373
  0.9312039474455359  0.9262224559532598  0.0635489680431435
  0.0689002175629114  0.0736659830813121  0.9364371061584367

  0.00000000E+00  0.00000000E+00  0.00000000E+00
  0.00000000E+00  0.00000000E+00  0.00000000E+00
  0.00000000E+00  0.00000000E+00  0.00000000E+00
  0.00000000E+00  0.00000000E+00  0.00000000E+00
