Mg  O                                   
   1.00000000000000     
    21.1388521970183838    0.0000000000000000    0.0000000000000000
     0.0000000000000000   21.1388521970183838    0.0000000000000000
     0.0000000000000000    0.0000000000000000   30.0000000000000000
   Au   Mg   O 
    20   200   200
Selective dynamics
Direct
  0.4319195234119277  0.2276112760788536  0.5808514562783103   T   T   T
  0.5597572207886685  0.2369220363275133  0.5883189114992362   T   T   T
  0.6832267111308497  0.2513698144402241  0.5921024010928022   T   T   T
  0.8084297251585610  0.2602510939133822  0.5951005048401470   T   T   T
  0.4767161243265434  0.3485651120885294  0.5856502124155440   T   T   T
  0.6106212694644881  0.3625097151016377  0.5893802961390477   T   T   T
  0.7483565189126082  0.3727854987328740  0.5913917999938292   T   T   T
  0.5243078844323108  0.4658745347855984  0.5836943002577257   T   T   T
  0.6788757268343915  0.4770101456889932  0.5850532953112904   T   T   T
  0.5954146072412101  0.5744634877261134  0.5776795259268042   T   T   T
  0.4801670234847180  0.2691598461093108  0.6601545949319885   T   T   T
  0.6130805227971834  0.2740048057580182  0.6685880349681170   T   T   T
  0.7446324982576726  0.2977815949443396  0.6704882776583645   T   T   T
  0.5236432876752133  0.4000052409088823  0.6626302703338567   T   T   T
  0.6808973862026448  0.4144510715507579  0.6656512307034532   T   T   T
  0.5951302837520700  0.5147426706409206  0.6559690209056512   T   T   T
  0.5331739327917404  0.3182274696349623  0.7334123460677375   T   T   T
  0.6728856091746138  0.3338313519531297  0.7384278430090276   T   T   T
  0.5952941575079365  0.4468349016380557  0.7313830057922743   T   T   T
  0.5945324327708335  0.3689227225957339  0.8030718580574145   T   T   T
  0.9999927097179651  0.9999971315773024  0.4287251478169978   T   T   T
  0.0999794421475073  0.0999975246252092  0.4287326490368173   T   T   T
  0.9999952766292282  0.0999849907619037  0.4976001831634420   T   T   T
  0.0999907181760520  0.9999907116467668  0.4975885235096555   T   T   T
  0.9999868122650071  0.1999997582569861  0.4287391733951154   T   T   T
  0.0999839642156530  0.3000026269750151  0.4287368307928787   T   T   T
  0.0000441738191199  0.3000022763920001  0.4976578715838613   T   T   T
  0.0999634649628263  0.1999999492727937  0.4976184544461830   T   T   T
  0.9999996183856652  0.3999976749664711  0.4287487596066839   T   T   T
  0.0999984006880439  0.5000029163430639  0.4287276679676850   T   T   T
  0.0000224170211780  0.5000023188163638  0.4976312927207545   T   T   T
  0.0999921264522143  0.4000120797755073  0.4975982599611868   T   T   T
  0.0000166530883803  0.5999980348948526  0.4287331072047706   T   T   T
  0.1000004815984923  0.6999986249639036  0.4287230512377675   T   T   T
  0.0000162014319898  0.7000035256409234  0.4975889835614069   T   T   T
  0.1000008536499450  0.6000036172497545  0.4975881868916545   T   T   T
  0.0000072430324494  0.8000007595726046  0.4287225896942886   T   T   T
  0.0999957609293531  0.8999946132276477  0.4287227296642300   T   T   T
  0.0000012251226522  0.8999988936619090  0.4975875058699515   T   T   T
  0.1000011771854972  0.7999956397492127  0.4975859427630880   T   T   T
  0.1999900950629012  0.9999891776372536  0.4287301070088887   T   T   T
  0.3000320431834993  0.1000299050353846  0.4288488553793286   T   T   T
  0.1999405221473154  0.0999374752571711  0.4976434358476354   T   T   T
  0.2999336832690105  0.9999270169452501  0.4976421545449341   T   T   T
  0.1999776418890704  0.2000056106691801  0.4287782620894163   T   T   T
  0.3000368892885206  0.2999930247061968  0.4288247287115468   T   T   T
  0.1999294258286355  0.3000831864204656  0.4976390271112550   T   T   T
  0.2989325053153991  0.2000911335936095  0.4987271673799114   T   T   T
  0.1999838654265815  0.4000126086515863  0.4287165258321721   T   T   T
  0.2999430293096168  0.5000111964199263  0.4287200564612021   T   T   T
  0.1999734310817942  0.5000176510994265  0.4975939646138343   T   T   T
  0.2997780795194629  0.4001278835277091  0.4976271147226612   T   T   T
  0.1999788694098541  0.6000029077799596  0.4287210999726199   T   T   T
  0.2999554157569762  0.7000060888319268  0.4287201577500355   T   T   T
  0.1999850026963514  0.7000023502410571  0.4975867931531681   T   T   T
  0.2998863289918887  0.6000226354441409  0.4976084325321821   T   T   T
  0.1999903634662701  0.7999939817617303  0.4287217287872025   T   T   T
  0.2999932141827557  0.8999850682935957  0.4287288875551809   T   T   T
  0.1999938136472466  0.8999867830219515  0.4975870805356521   T   T   T
  0.2999695248722176  0.8000111297691106  0.4975870820681223   T   T   T
  0.4000016414226621  0.9999807922895698  0.4287735396921022   T   T   T
  0.4999907727288786  0.1000148249982118  0.4288156320993011   T   T   T
  0.3999974035990874  0.0988175024347484  0.4987325294314147   T   T   T
  0.5000619676889286  0.9999523945080711  0.4976249504647825   T   T   T
  0.4000219754468617  0.2000950894458526  0.4285040473085502   T   T   T
  0.4999732905457392  0.2999676438947247  0.4285348676126404   T   T   T
  0.3996284374372223  0.3025469666666751  0.4989472624526741   T   T   T
  0.5010621604370229  0.1996142273638384  0.4985598008726697   T   T   T
  0.3999662944055089  0.4000355932120883  0.4286140416732351   T   T   T
  0.4999031195352117  0.4999948718045957  0.4284804286967017   T   T   T
  0.3994160340353403  0.4999439866135802  0.4977980427042752   T   T   T
  0.4999817235103734  0.3998712237074784  0.4977598162709498   T   T   T
  0.3998283884664815  0.6000076844838418  0.4286699022431719   T   T   T
  0.4999447966837423  0.7000746107164204  0.4287367073683015   T   T   T
  0.3997874406101758  0.7002040662194915  0.4976216571091996   T   T   T
  0.4974502971891326  0.6008320101380349  0.4980851204218055   T   T   T
  0.3999692953355307  0.8000229162455028  0.4287143487878424   T   T   T
  0.4999921764708617  0.9000296190433943  0.4287209457001637   T   T   T
  0.3999799547069784  0.8999855589147998  0.4976086692202770   T   T   T
  0.4998184962366494  0.8001837941865588  0.4976042561684011   T   T   T
  0.6000170021406390  0.0000282572651855  0.4287188109607953   T   T   T
  0.7000088351664004  0.1001044072368558  0.4287946255946196   T   T   T
  0.6000622384547540  0.0998194242582713  0.4976994724292823   T   T   T
  0.7000113495077471  0.0000259855149380  0.4976222484522168   T   T   T
  0.6001303190031066  0.1999924921504004  0.4286075859419896   T   T   T
  0.7001066799474174  0.2999058797135277  0.4287183571327944   T   T   T
  0.6001321947848837  0.2999008980105557  0.4978157246866459   T   T   T
  0.7000472739791519  0.1997244594498966  0.4992032802212023   T   T   T
  0.6001391702047556  0.3997874710798257  0.4285069441163074   T   T   T
  0.7001646452129364  0.4999401813912456  0.4286881205956519   T   T   T
  0.5999575983804561  0.4990975565836706  0.4976997363437334   T   T   T
  0.7000637748532554  0.3993832977617444  0.4992474291213327   T   T   T
  0.5999952382366587  0.6001611327709213  0.4284495661489487   T   T   T
  0.7000444480047037  0.7000461671861160  0.4287633993397364   T   T   T
  0.5999323786651871  0.7026859212705929  0.4977602326087549   T   T   T
  0.7016447474591061  0.6012029626236597  0.4987193042874551   T   T   T
  0.5999985797412606  0.8001879779376821  0.4286280015873487   T   T   T
  0.7000141057710607  0.9000495550010470  0.4287234031973028   T   T   T
  0.6000023890643078  0.9000964109350633  0.4975912594910312   T   T   T
  0.7001622130932716  0.8001878667740741  0.4976148003246905   T   T   T
  0.7999998752968267  0.0000105900896017  0.4287342498175448   T   T   T
  0.8999919359490036  0.1000002381503151  0.4287435254400194   T   T   T
  0.8000076030713217  0.0998659317656134  0.4976995766188566   T   T   T
  0.9000026771498710  0.9999978178251396  0.4975971579866396   T   T   T
  0.7999189436714929  0.2001064074895353  0.4287737842028676   T   T   T
  0.8998826423147861  0.2999851657995762  0.4287822492993101   T   T   T
  0.8000035284122973  0.3000176647763553  0.4993267136172506   T   T   T
  0.9001343807215392  0.1999431679457260  0.4976766652330227   T   T   T
  0.7999162407793321  0.3999262107665231  0.4288036589541306   T   T   T
  0.8999799622701801  0.4999903410140121  0.4287929052643875   T   T   T
  0.8007402797008112  0.5000720193246053  0.4988614726384668   T   T   T
  0.9001491370530559  0.3999901804056378  0.4977699739390360   T   T   T
  0.8000759810164411  0.5999412980299041  0.4288066727733408   T   T   T
  0.9000344436155956  0.7000046483573001  0.4287313099003569   T   T   T
  0.8001853652079021  0.7001693481421611  0.4976658150123470   T   T   T
  0.9001060331962876  0.6000419738693452  0.4976557257410477   T   T   T
  0.8000283244134536  0.8000297441129618  0.4287213159109200   T   T   T
  0.9000043440136452  0.9000072156963199  0.4287237936232415   T   T   T
  0.8000184704044671  0.9000310039397803  0.4975920486139671   T   T   T
  0.9000261394019873  0.8000155890406475  0.4975881113629299   T   T   T
  0.0000000000000000  0.0000000000000000  0.2886110000000031   F   F   F
  0.1000000000000014  0.1000000000000014  0.2886110000000031   F   F   F
  0.0000000000000000  0.1000000000000014  0.3590739999999997   F   F   F
  0.1000000000000014  0.0000000000000000  0.3590739999999997   F   F   F
  0.0000000000000000  0.2000000000000028  0.2886110000000031   F   F   F
  0.1000000000000014  0.2999999999999972  0.2886110000000031   F   F   F
  0.0000000000000000  0.2999999999999972  0.3590739999999997   F   F   F
  0.1000000000000014  0.2000000000000028  0.3590739999999997   F   F   F
  0.0000000000000000  0.3999999999999986  0.2886110000000031   F   F   F
  0.1000000000000014  0.5000000000000000  0.2886110000000031   F   F   F
  0.0000000000000000  0.5000000000000000  0.3590739999999997   F   F   F
  0.1000000000000014  0.3999999999999986  0.3590739999999997   F   F   F
  0.0000000000000000  0.6000000000000014  0.2886110000000031   F   F   F
  0.1000000000000014  0.7000000000000028  0.2886110000000031   F   F   F
  0.0000000000000000  0.7000000000000028  0.3590739999999997   F   F   F
  0.1000000000000014  0.6000000000000014  0.3590739999999997   F   F   F
  0.0000000000000000  0.7999999999999972  0.2886110000000031   F   F   F
  0.1000000000000014  0.8999999999999986  0.2886110000000031   F   F   F
  0.0000000000000000  0.8999999999999986  0.3590739999999997   F   F   F
  0.1000000000000014  0.7999999999999972  0.3590739999999997   F   F   F
  0.2000000000000028  0.0000000000000000  0.2886110000000031   F   F   F
  0.2999999999999972  0.1000000000000014  0.2886110000000031   F   F   F
  0.2000000000000028  0.1000000000000014  0.3590739999999997   F   F   F
  0.2999999999999972  0.0000000000000000  0.3590739999999997   F   F   F
  0.2000000000000028  0.2000000000000028  0.2886110000000031   F   F   F
  0.2999999999999972  0.2999999999999972  0.2886110000000031   F   F   F
  0.2000000000000028  0.2999999999999972  0.3590739999999997   F   F   F
  0.2999999999999972  0.2000000000000028  0.3590739999999997   F   F   F
  0.2000000000000028  0.3999999999999986  0.2886110000000031   F   F   F
  0.2999999999999972  0.5000000000000000  0.2886110000000031   F   F   F
  0.2000000000000028  0.5000000000000000  0.3590739999999997   F   F   F
  0.2999999999999972  0.3999999999999986  0.3590739999999997   F   F   F
  0.2000000000000028  0.6000000000000014  0.2886110000000031   F   F   F
  0.2999999999999972  0.7000000000000028  0.2886110000000031   F   F   F
  0.2000000000000028  0.7000000000000028  0.3590739999999997   F   F   F
  0.2999999999999972  0.6000000000000014  0.3590739999999997   F   F   F
  0.2000000000000028  0.7999999999999972  0.2886110000000031   F   F   F
  0.2999999999999972  0.8999999999999986  0.2886110000000031   F   F   F
  0.2000000000000028  0.8999999999999986  0.3590739999999997   F   F   F
  0.2999999999999972  0.7999999999999972  0.3590739999999997   F   F   F
  0.3999999999999986  0.0000000000000000  0.2886110000000031   F   F   F
  0.5000000000000000  0.1000000000000014  0.2886110000000031   F   F   F
  0.3999999999999986  0.1000000000000014  0.3590739999999997   F   F   F
  0.5000000000000000  0.0000000000000000  0.3590739999999997   F   F   F
  0.3999999999999986  0.2000000000000028  0.2886110000000031   F   F   F
  0.5000000000000000  0.2999999999999972  0.2886110000000031   F   F   F
  0.3999999999999986  0.2999999999999972  0.3590739999999997   F   F   F
  0.5000000000000000  0.2000000000000028  0.3590739999999997   F   F   F
  0.3999999999999986  0.3999999999999986  0.2886110000000031   F   F   F
  0.5000000000000000  0.5000000000000000  0.2886110000000031   F   F   F
  0.3999999999999986  0.5000000000000000  0.3590739999999997   F   F   F
  0.5000000000000000  0.3999999999999986  0.3590739999999997   F   F   F
  0.3999999999999986  0.6000000000000014  0.2886110000000031   F   F   F
  0.5000000000000000  0.7000000000000028  0.2886110000000031   F   F   F
  0.3999999999999986  0.7000000000000028  0.3590739999999997   F   F   F
  0.5000000000000000  0.6000000000000014  0.3590739999999997   F   F   F
  0.3999999999999986  0.7999999999999972  0.2886110000000031   F   F   F
  0.5000000000000000  0.8999999999999986  0.2886110000000031   F   F   F
  0.3999999999999986  0.8999999999999986  0.3590739999999997   F   F   F
  0.5000000000000000  0.7999999999999972  0.3590739999999997   F   F   F
  0.6000000000000014  0.0000000000000000  0.2886110000000031   F   F   F
  0.7000000000000028  0.1000000000000014  0.2886110000000031   F   F   F
  0.6000000000000014  0.1000000000000014  0.3590739999999997   F   F   F
  0.7000000000000028  0.0000000000000000  0.3590739999999997   F   F   F
  0.6000000000000014  0.2000000000000028  0.2886110000000031   F   F   F
  0.7000000000000028  0.2999999999999972  0.2886110000000031   F   F   F
  0.6000000000000014  0.2999999999999972  0.3590739999999997   F   F   F
  0.7000000000000028  0.2000000000000028  0.3590739999999997   F   F   F
  0.6000000000000014  0.3999999999999986  0.2886110000000031   F   F   F
  0.7000000000000028  0.5000000000000000  0.2886110000000031   F   F   F
  0.6000000000000014  0.5000000000000000  0.3590739999999997   F   F   F
  0.7000000000000028  0.3999999999999986  0.3590739999999997   F   F   F
  0.6000000000000014  0.6000000000000014  0.2886110000000031   F   F   F
  0.7000000000000028  0.7000000000000028  0.2886110000000031   F   F   F
  0.6000000000000014  0.7000000000000028  0.3590739999999997   F   F   F
  0.7000000000000028  0.6000000000000014  0.3590739999999997   F   F   F
  0.6000000000000014  0.7999999999999972  0.2886110000000031   F   F   F
  0.7000000000000028  0.8999999999999986  0.2886110000000031   F   F   F
  0.6000000000000014  0.8999999999999986  0.3590739999999997   F   F   F
  0.7000000000000028  0.7999999999999972  0.3590739999999997   F   F   F
  0.7999999999999972  0.0000000000000000  0.2886110000000031   F   F   F
  0.8999999999999986  0.1000000000000014  0.2886110000000031   F   F   F
  0.7999999999999972  0.1000000000000014  0.3590739999999997   F   F   F
  0.8999999999999986  0.0000000000000000  0.3590739999999997   F   F   F
  0.7999999999999972  0.2000000000000028  0.2886110000000031   F   F   F
  0.8999999999999986  0.2999999999999972  0.2886110000000031   F   F   F
  0.7999999999999972  0.2999999999999972  0.3590739999999997   F   F   F
  0.8999999999999986  0.2000000000000028  0.3590739999999997   F   F   F
  0.7999999999999972  0.3999999999999986  0.2886110000000031   F   F   F
  0.8999999999999986  0.5000000000000000  0.2886110000000031   F   F   F
  0.7999999999999972  0.5000000000000000  0.3590739999999997   F   F   F
  0.8999999999999986  0.3999999999999986  0.3590739999999997   F   F   F
  0.7999999999999972  0.6000000000000014  0.2886110000000031   F   F   F
  0.8999999999999986  0.7000000000000028  0.2886110000000031   F   F   F
  0.7999999999999972  0.7000000000000028  0.3590739999999997   F   F   F
  0.8999999999999986  0.6000000000000014  0.3590739999999997   F   F   F
  0.7999999999999972  0.7999999999999972  0.2886110000000031   F   F   F
  0.8999999999999986  0.8999999999999986  0.2886110000000031   F   F   F
  0.7999999999999972  0.8999999999999986  0.3590739999999997   F   F   F
  0.8999999999999986  0.7999999999999972  0.3590739999999997   F   F   F
  0.0000731250038299  0.9999377856796912  0.4989231602686672   T   T   T
  0.1001272718442223  0.0999926035321153  0.4989322806191581   T   T   T
  0.0000483980301524  0.1000073564406918  0.4284814536642898   T   T   T
  0.1000835733384662  0.0000228365234634  0.4284794894915507   T   T   T
  0.0001083325554916  0.1999641239094174  0.4989438719947330   T   T   T
  0.1001091885371821  0.3000000446385727  0.4989176286995303   T   T   T
  0.9999582383404828  0.3000136966812477  0.4285296902159175   T   T   T
  0.1001169250495764  0.2000121548258420  0.4285011739436442   T   T   T
  0.0000644114645922  0.4000531344222154  0.4989232549137839   T   T   T
  0.1000657686387498  0.5000345295074666  0.4989039071242019   T   T   T
  0.9999340635842202  0.5000192255843032  0.4285042884034169   T   T   T
  0.1000465598631450  0.3999726109504707  0.4284671206572028   T   T   T
  0.9999954359770911  0.6000550314210926  0.4989093409915668   T   T   T
  0.1000399809121717  0.7000094307366282  0.4989232484762240   T   T   T
  0.9999622447516643  0.6999788282254755  0.4284751063206684   T   T   T
  0.1000165155565256  0.6000002057206615  0.4284708297109674   T   T   T
  0.9999929871890458  0.7999679390965682  0.4989288374790490   T   T   T
  0.1000772188543664  0.8999834774277105  0.4989340644953444   T   T   T
  0.0000103741655622  0.8999678440580254  0.4284814720197261   T   T   T
  0.1000294822103598  0.7999915634738812  0.4284807711563801   T   T   T
  0.2001123637721776  0.0000292359587561  0.4989205605218601   T   T   T
  0.3001252998928976  0.1000975156090576  0.4994330285325503   T   T   T
  0.2002057059695801  0.1001303149731427  0.4285477504020747   T   T   T
  0.3001457935487721  0.0001407889008291  0.4285447554540269   T   T   T
  0.2000290851277597  0.2000239661222807  0.4991401600330789   T   T   T
  0.2999980775006108  0.3001088265996472  0.4992132132442535   T   T   T
  0.2001787409609861  0.2998736674109637  0.4285231197439501   T   T   T
  0.3007069757526821  0.1999888537007024  0.4291694283509528   T   T   T
  0.2000677361676821  0.4000286918162459  0.4988567756581119   T   T   T
  0.2999711468915791  0.5001228320600433  0.4988549312624428   T   T   T
  0.2000647663131332  0.5000068061721876  0.4284597498985789   T   T   T
  0.3000592991627968  0.3999876391930286  0.4284406591587668   T   T   T
  0.2000733061572291  0.6000424030624814  0.4989013461919001   T   T   T
  0.3001164396292424  0.7000020526524509  0.4989042641604087   T   T   T
  0.2000645724194285  0.6999893532590775  0.4284746781075484   T   T   T
  0.3001239445315349  0.6000096548025908  0.4284697769548060   T   T   T
  0.2000860835080829  0.7999800760271540  0.4989249718070212   T   T   T
  0.3000608720421809  0.8999748497929403  0.4989246293487639   T   T   T
  0.2000856191046836  0.9000187353760865  0.4284792626351930   T   T   T
  0.3001000875078716  0.7999528547235712  0.4284731110367233   T   T   T
  0.3999272166433627  0.9998314469045155  0.4991201313701481   T   T   T
  0.4996503750164010  0.0997509789658508  0.4989654329243720   T   T   T
  0.3998717408422365  0.1006857588561800  0.4291540629732822   T   T   T
  0.4998117924107035  0.0000132236204067  0.4284836506391585   T   T   T
  0.3994006950035640  0.1998757965890192  0.5034423570084030   T   T   T
  0.4997592018711856  0.3002971263397498  0.4967794217717980   T   T   T
  0.3997421042308602  0.2995165733195506  0.4289698119871304   T   T   T
  0.4991102014472304  0.1998017535696661  0.4289057594312666   T   T   T
  0.3994245112542956  0.4008042642257550  0.4982269535525816   T   T   T
  0.4996578753742824  0.5011222381920746  0.4988486646466583   T   T   T
  0.4002292768776741  0.5002616000017355  0.4285406013648725   T   T   T
  0.4998844929828081  0.4006366870083369  0.4283637687850970   T   T   T
  0.3997177356938977  0.6000855595412773  0.4989792803343747   T   T   T
  0.4999403585273612  0.7001540489010694  0.4991057311152645   T   T   T
  0.4001979736893162  0.6998497736511737  0.4285189420545095   T   T   T
  0.5004760766700898  0.6000064101168050  0.4289754134442347   T   T   T
  0.4000535065917035  0.7999476329699107  0.4988916058351620   T   T   T
  0.4999531428242179  0.8999040733265034  0.4988917773240260   T   T   T
  0.4000327937467176  0.8999851817148823  0.4284841209403680   T   T   T
  0.5001110283327677  0.7998279562546884  0.4285056671754859   T   T   T
  0.5998773937984794  0.9998762328348434  0.4988281528663592   T   T   T
  0.6999793712228168  0.0997393563549238  0.4989112671766378   T   T   T
  0.5998126254349430  0.0999366748043897  0.4284489502081072   T   T   T
  0.6999659069487691  0.9999255186071139  0.4284704100972192   T   T   T
  0.5996253033745162  0.1992804987921915  0.4979454816893991   T   T   T
  0.6999587890297008  0.2998167021155425  0.4974543477627194   T   T   T
  0.5998706676551606  0.2998686984553842  0.4282241177418982   T   T   T
  0.7001387864671713  0.1997976871600500  0.4286999964469018   T   T   T
  0.6001510800810905  0.4004323894772668  0.4969213441724492   T   T   T
  0.6999904765993747  0.5014650910205702  0.4994283966199760   T   T   T
  0.5999889454931804  0.5010521166221125  0.4289927463255196   T   T   T
  0.7001153902508577  0.4006395049107212  0.4287575327361353   T   T   T
  0.5996468463823206  0.6021099166865369  0.5014392642556018   T   T   T
  0.6997667184002694  0.7002158821870381  0.4992254239305254   T   T   T
  0.5999578219502624  0.6996293123256905  0.4288238054648588   T   T   T
  0.6993470051596873  0.6000248309129503  0.4292000975972243   T   T   T
  0.5999086100183177  0.8003177907133292  0.4989359040686523   T   T   T
  0.6999287259094160  0.8998609414069421  0.4989037223796728   T   T   T
  0.5999439438068350  0.8998940389992001  0.4284584851399913   T   T   T
  0.6998265492509219  0.7997973126174216  0.4285195653073330   T   T   T
  0.8000128479913329  0.9998635000625811  0.4988900524927828   T   T   T
  0.9001190704784889  0.0998833387118481  0.4989500389431072   T   T   T
  0.8000707826940712  0.1000558459303704  0.4285589414009934   T   T   T
  0.9000028193912541  0.9999540091383068  0.4284747901921264   T   T   T
  0.8006187289976978  0.1995793904377123  0.4995180380533171   T   T   T
  0.9003075985581290  0.2999810181045106  0.4993103384157678   T   T   T
  0.8002104288039860  0.3000663787005564  0.4288146090988647   T   T   T
  0.8999865671715597  0.2000401995096155  0.4285770087173688   T   T   T
  0.8003897044064132  0.4005428047593540  0.4991292872897333   T   T   T
  0.9000390410110839  0.5001624786744259  0.4991243113455681   T   T   T
  0.7997193673797369  0.5002150790921505  0.4289122440126363   T   T   T
  0.8999048032619825  0.4000746612208630  0.4286166829587188   T   T   T
  0.8000316887170413  0.6002224875487627  0.4993445053051744   T   T   T
  0.8999119329657361  0.7000036618099656  0.4989071790238171   T   T   T
  0.7997594578975367  0.6998156784687168  0.4285632516332853   T   T   T
  0.8998382909148361  0.5999899318374347  0.4285355843605885   T   T   T
  0.7998961591269094  0.7998956976990215  0.4989006420272659   T   T   T
  0.8999708066332701  0.8999039385181433  0.4989219487407581   T   T   T
  0.7999313648620756  0.8998842075507554  0.4284745520890354   T   T   T
  0.8999173577803035  0.7999207086500775  0.4284757088550251   T   T   T
  0.0000000000000000  0.0000000000000000  0.3590739999999997   F   F   F
  0.1000000000000014  0.1000000000000014  0.3590739999999997   F   F   F
  0.0000000000000000  0.1000000000000014  0.2886110000000031   F   F   F
  0.1000000000000014  0.0000000000000000  0.2886110000000031   F   F   F
  0.0000000000000000  0.2000000000000028  0.3590739999999997   F   F   F
  0.1000000000000014  0.2999999999999972  0.3590739999999997   F   F   F
  0.0000000000000000  0.2999999999999972  0.2886110000000031   F   F   F
  0.1000000000000014  0.2000000000000028  0.2886110000000031   F   F   F
  0.0000000000000000  0.3999999999999986  0.3590739999999997   F   F   F
  0.1000000000000014  0.5000000000000000  0.3590739999999997   F   F   F
  0.0000000000000000  0.5000000000000000  0.2886110000000031   F   F   F
  0.1000000000000014  0.3999999999999986  0.2886110000000031   F   F   F
  0.0000000000000000  0.6000000000000014  0.3590739999999997   F   F   F
  0.1000000000000014  0.7000000000000028  0.3590739999999997   F   F   F
  0.0000000000000000  0.7000000000000028  0.2886110000000031   F   F   F
  0.1000000000000014  0.6000000000000014  0.2886110000000031   F   F   F
  0.0000000000000000  0.7999999999999972  0.3590739999999997   F   F   F
  0.1000000000000014  0.8999999999999986  0.3590739999999997   F   F   F
  0.0000000000000000  0.8999999999999986  0.2886110000000031   F   F   F
  0.1000000000000014  0.7999999999999972  0.2886110000000031   F   F   F
  0.2000000000000028  0.0000000000000000  0.3590739999999997   F   F   F
  0.2999999999999972  0.1000000000000014  0.3590739999999997   F   F   F
  0.2000000000000028  0.1000000000000014  0.2886110000000031   F   F   F
  0.2999999999999972  0.0000000000000000  0.2886110000000031   F   F   F
  0.2000000000000028  0.2000000000000028  0.3590739999999997   F   F   F
  0.2999999999999972  0.2999999999999972  0.3590739999999997   F   F   F
  0.2000000000000028  0.2999999999999972  0.2886110000000031   F   F   F
  0.2999999999999972  0.2000000000000028  0.2886110000000031   F   F   F
  0.2000000000000028  0.3999999999999986  0.3590739999999997   F   F   F
  0.2999999999999972  0.5000000000000000  0.3590739999999997   F   F   F
  0.2000000000000028  0.5000000000000000  0.2886110000000031   F   F   F
  0.2999999999999972  0.3999999999999986  0.2886110000000031   F   F   F
  0.2000000000000028  0.6000000000000014  0.3590739999999997   F   F   F
  0.2999999999999972  0.7000000000000028  0.3590739999999997   F   F   F
  0.2000000000000028  0.7000000000000028  0.2886110000000031   F   F   F
  0.2999999999999972  0.6000000000000014  0.2886110000000031   F   F   F
  0.2000000000000028  0.7999999999999972  0.3590739999999997   F   F   F
  0.2999999999999972  0.8999999999999986  0.3590739999999997   F   F   F
  0.2000000000000028  0.8999999999999986  0.2886110000000031   F   F   F
  0.2999999999999972  0.7999999999999972  0.2886110000000031   F   F   F
  0.3999999999999986  0.0000000000000000  0.3590739999999997   F   F   F
  0.5000000000000000  0.1000000000000014  0.3590739999999997   F   F   F
  0.3999999999999986  0.1000000000000014  0.2886110000000031   F   F   F
  0.5000000000000000  0.0000000000000000  0.2886110000000031   F   F   F
  0.3999999999999986  0.2000000000000028  0.3590739999999997   F   F   F
  0.5000000000000000  0.2999999999999972  0.3590739999999997   F   F   F
  0.3999999999999986  0.2999999999999972  0.2886110000000031   F   F   F
  0.5000000000000000  0.2000000000000028  0.2886110000000031   F   F   F
  0.3999999999999986  0.3999999999999986  0.3590739999999997   F   F   F
  0.5000000000000000  0.5000000000000000  0.3590739999999997   F   F   F
  0.3999999999999986  0.5000000000000000  0.2886110000000031   F   F   F
  0.5000000000000000  0.3999999999999986  0.2886110000000031   F   F   F
  0.3999999999999986  0.6000000000000014  0.3590739999999997   F   F   F
  0.5000000000000000  0.7000000000000028  0.3590739999999997   F   F   F
  0.3999999999999986  0.7000000000000028  0.2886110000000031   F   F   F
  0.5000000000000000  0.6000000000000014  0.2886110000000031   F   F   F
  0.3999999999999986  0.7999999999999972  0.3590739999999997   F   F   F
  0.5000000000000000  0.8999999999999986  0.3590739999999997   F   F   F
  0.3999999999999986  0.8999999999999986  0.2886110000000031   F   F   F
  0.5000000000000000  0.7999999999999972  0.2886110000000031   F   F   F
  0.6000000000000014  0.0000000000000000  0.3590739999999997   F   F   F
  0.7000000000000028  0.1000000000000014  0.3590739999999997   F   F   F
  0.6000000000000014  0.1000000000000014  0.2886110000000031   F   F   F
  0.7000000000000028  0.0000000000000000  0.2886110000000031   F   F   F
  0.6000000000000014  0.2000000000000028  0.3590739999999997   F   F   F
  0.7000000000000028  0.2999999999999972  0.3590739999999997   F   F   F
  0.6000000000000014  0.2999999999999972  0.2886110000000031   F   F   F
  0.7000000000000028  0.2000000000000028  0.2886110000000031   F   F   F
  0.6000000000000014  0.3999999999999986  0.3590739999999997   F   F   F
  0.7000000000000028  0.5000000000000000  0.3590739999999997   F   F   F
  0.6000000000000014  0.5000000000000000  0.2886110000000031   F   F   F
  0.7000000000000028  0.3999999999999986  0.2886110000000031   F   F   F
  0.6000000000000014  0.6000000000000014  0.3590739999999997   F   F   F
  0.7000000000000028  0.7000000000000028  0.3590739999999997   F   F   F
  0.6000000000000014  0.7000000000000028  0.2886110000000031   F   F   F
  0.7000000000000028  0.6000000000000014  0.2886110000000031   F   F   F
  0.6000000000000014  0.7999999999999972  0.3590739999999997   F   F   F
  0.7000000000000028  0.8999999999999986  0.3590739999999997   F   F   F
  0.6000000000000014  0.8999999999999986  0.2886110000000031   F   F   F
  0.7000000000000028  0.7999999999999972  0.2886110000000031   F   F   F
  0.7999999999999972  0.0000000000000000  0.3590739999999997   F   F   F
  0.8999999999999986  0.1000000000000014  0.3590739999999997   F   F   F
  0.7999999999999972  0.1000000000000014  0.2886110000000031   F   F   F
  0.8999999999999986  0.0000000000000000  0.2886110000000031   F   F   F
  0.7999999999999972  0.2000000000000028  0.3590739999999997   F   F   F
  0.8999999999999986  0.2999999999999972  0.3590739999999997   F   F   F