Mg  O                                   
   1.00000000000000     
    21.1388521970183838    0.0000000000000000    0.0000000000000000
     0.0000000000000000   21.1388521970183838    0.0000000000000000
     0.0000000000000000    0.0000000000000000   30.0000000000000000
   Au
    20
Selective dynamics
Direct
  0.4308025093558570  0.2267216047391472  0.5826801993645319   T   T   T
  0.5591148535006027  0.2368270404163013  0.5896357084265915   T   T   T
  0.6833835138594466  0.2515826905961163  0.5931214789197483   T   T   T
  0.8093512846233182  0.2595955318196417  0.5963219436193299   T   T   T
  0.4755670018494627  0.3483403824526476  0.5872102620651347   T   T   T
  0.6100585600425248  0.3628308245317484  0.5897976424853653   T   T   T
  0.7484795702080689  0.3726730978944346  0.5927258659820041   T   T   T
  0.5236224305789463  0.4665145828102837  0.5853254589281889   T   T   T
  0.6783421349823726  0.4775304463091246  0.5866746040828517   T   T   T
  0.5949654767610255  0.5756560150141894  0.5798120676199119   T   T   T
  0.4795312046736768  0.2688342280422873  0.6622026308203814   T   T   T
  0.6126637098515104  0.2773659676967242  0.6693870740900181   T   T   T
  0.7450745542409436  0.2971475855733701  0.6720324511543154   T   T   T
  0.5252239851124472  0.3989068079854832  0.6641205804385351   T   T   T
  0.6786770970307714  0.4127036083598909  0.6669823493671956   T   T   T
  0.5945920742854298  0.5149355761151071  0.6582712933440504   T   T   T
  0.5330014658259188  0.3180917476569292  0.7360095806200917   T   T   T
  0.6731111198517610  0.3332238869791482  0.7408143304824719   T   T   T
  0.5949504934170591  0.4463210337897934  0.7341049399486579   T   T   T
  0.5948045949671723  0.3681885127838882  0.8062202739768409   T   T   T
 
  0.00000000E+00  0.00000000E+00  0.00000000E+00
  0.00000000E+00  0.00000000E+00  0.00000000E+00
  0.00000000E+00  0.00000000E+00  0.00000000E+00
  0.00000000E+00  0.00000000E+00  0.00000000E+00
  0.00000000E+00  0.00000000E+00  0.00000000E+00
  0.00000000E+00  0.00000000E+00  0.00000000E+00
  0.00000000E+00  0.00000000E+00  0.00000000E+00
  0.00000000E+00  0.00000000E+00  0.00000000E+00
  0.00000000E+00  0.00000000E+00  0.00000000E+00
  0.00000000E+00  0.00000000E+00  0.00000000E+00
  0.00000000E+00  0.00000000E+00  0.00000000E+00
  0.00000000E+00  0.00000000E+00  0.00000000E+00
  0.00000000E+00  0.00000000E+00  0.00000000E+00
  0.00000000E+00  0.00000000E+00  0.00000000E+00
  0.00000000E+00  0.00000000E+00  0.00000000E+00
  0.00000000E+00  0.00000000E+00  0.00000000E+00
  0.00000000E+00  0.00000000E+00  0.00000000E+00
  0.00000000E+00  0.00000000E+00  0.00000000E+00
  0.00000000E+00  0.00000000E+00  0.00000000E+00
  0.00000000E+00  0.00000000E+00  0.00000000E+00
