Au                                      
   1.0000000000000000     
    20.0000000000000000    0.0000000000000000    0.0000000000000000
     0.0000000000000000   20.0000000000000000    0.0000000000000000
     0.0000000000000000    0.0000000000000000   20.0000000000000000
   Au
     6
Direct
  0.5211367308871130  0.5735559062002993  0.4165399943126712
  0.4748523891156922  0.4585051402433493  0.4656762826840518
  0.5293216400325166  0.4258102240807159  0.5829624658892866
  0.4007618042249348  0.4743220391735940  0.5754565177538534
  0.6037227478499807  0.4871594671545679  0.4847797403896351
  0.3956954075347677  0.5656267371974700  0.4725863344004989

  0.00000000E+00  0.00000000E+00  0.00000000E+00
  0.00000000E+00  0.00000000E+00  0.00000000E+00
  0.00000000E+00  0.00000000E+00  0.00000000E+00
  0.00000000E+00  0.00000000E+00  0.00000000E+00
  0.00000000E+00  0.00000000E+00  0.00000000E+00
  0.00000000E+00  0.00000000E+00  0.00000000E+00
