Cu                                      
   1.0000000000000000     
    21.1388521970183838    0.0000000000000000    0.0000000000000000
     0.0000000000000000   21.1388521970183838    0.0000000000000000
     0.0000000000000000    0.0000000000000000   22.1138852197018352
   Cu
     2
Direct
  0.5526843591029120  0.5000000001879528  0.6304093913490902
  0.4473156408970880  0.5000000001879528  0.6304093913490902

  0.00000000E+00  0.00000000E+00  0.00000000E+00
  0.00000000E+00  0.00000000E+00  0.00000000E+00
