Mg  O                                   
   1.00000000000000     
    21.1388521970183838    0.0000000000000000    0.0000000000000000
     0.0000000000000000   21.1388521970183838    0.0000000000000000
     0.0000000000000000    0.0000000000000000   30.0000000000000000
   Au   Mg   O 
    20   200   200
Selective dynamics
Direct
  0.4319195234119288  0.2276112760788511  0.5808514562783078   T   T   T
  0.5597572207886672  0.2369220363275146  0.5883189114992338   T   T   T
  0.6832267111308508  0.2513698144402212  0.5921024010928009   T   T   T
  0.8084297251585607  0.2602510939133832  0.5951005048401486   T   T   T
  0.4767161243265434  0.3485651120885306  0.5856502124155447   T   T   T
  0.6106212694644864  0.3625097151016409  0.5893802961390492   T   T   T
  0.7483565189126050  0.3727854987328710  0.5913917999938281   T   T   T
  0.5243078844323114  0.4658745347855984  0.5836943002577286   T   T   T
  0.6788757268343928  0.4770101456889934  0.5850532953112872   T   T   T
  0.5954146072412074  0.5744634877261111  0.5776795259268056   T   T   T
  0.4801670234847179  0.2691598461093130  0.6601545949319887   T   T   T
  0.6130805227971838  0.2740048057580212  0.6685880349681179   T   T   T
  0.7446324982576742  0.2977815949443414  0.6704882776583634   T   T   T
  0.5236432876752147  0.4000052409088849  0.6626302703338538   T   T   T
  0.6808973862026438  0.4144510715507606  0.6656512307034514   T   T   T
  0.5951302837520736  0.5147426706409217  0.6559690209056522   T   T   T
  0.5331739327917409  0.3182274696349650  0.7334123460677389   T   T   T
  0.6728856091746136  0.3338313519531263  0.7384278430090285   T   T   T
  0.5952941575079340  0.4468349016380526  0.7313830057922754   T   T   T
  0.5945324327708340  0.3689227225957347  0.8030718580574138   T   T   T
  0.9999927097179658  0.9999971315773015  0.4287251478170008   T   T   T
  0.0999794421475095  0.0999975246252115  0.4287326490368182   T   T   T
  0.9999952766292298  0.0999849907619060  0.4976001831634436   T   T   T
  0.0999907181760522  0.9999907116467647  0.4975885235096581   T   T   T
  0.9999868122650041  0.1999997582569856  0.4287391733951141   T   T   T
  0.0999839642156513  0.3000026269750127  0.4287368307928752   T   T   T
  0.0000441738191230  0.3000022763919998  0.4976578715838581   T   T   T
  0.0999634649628246  0.1999999492727909  0.4976184544461841   T   T   T
 -0.0000003816143370  0.3999976749664678  0.4287487596066848   T   T   T
  0.0999984006880447  0.5000029163430623  0.4287276679676846   T   T   T
  0.0000224170211776  0.5000023188163640  0.4976312927207550   T   T   T
  0.0999921264522158  0.4000120797755050  0.4975982599611838   T   T   T
  0.0000166530883828  0.5999980348948496  0.4287331072047709   T   T   T
  0.1000004815984902  0.6999986249639031  0.4287230512377692   T   T   T
  0.0000162014319917  0.7000035256409219  0.4975889835614064   T   T   T
  0.1000008536499430  0.6000036172497517  0.4975881868916521   T   T   T
  0.0000072430324462  0.8000007595726037  0.4287225896942893   T   T   T
  0.0999957609293519  0.8999946132276444  0.4287227296642303   T   T   T
  0.0000012251226496  0.8999988936619107  0.4975875058699501   T   T   T
  0.1000011771854970  0.7999956397492126  0.4975859427630872   T   T   T
  0.1999900950628999  0.9999891776372559  0.4287301070088884   T   T   T
  0.3000320431834961  0.1000299050353837  0.4288488553793320   T   T   T
  0.1999405221473167  0.0999374752571739  0.4976434358476340   T   T   T
  0.2999336832690094  0.9999270169452523  0.4976421545449348   T   T   T
  0.1999776418890692  0.2000056106691788  0.4287782620894162   T   T   T
  0.3000368892885236  0.2999930247061971  0.4288247287115501   T   T   T
  0.1999294258286352  0.3000831864204677  0.4976390271112548   T   T   T
  0.2989325053153999  0.2000911335936067  0.4987271673799143   T   T   T
  0.1999838654265824  0.4000126086515857  0.4287165258321690   T   T   T
  0.2999430293096151  0.5000111964199246  0.4287200564612051   T   T   T
  0.1999734310817914  0.5000176510994281  0.4975939646138342   T   T   T
  0.2997780795194606  0.4001278835277105  0.4976271147226631   T   T   T
  0.1999788694098512  0.6000029077799611  0.4287210999726163   T   T   T
  0.2999554157569765  0.7000060888319236  0.4287201577500354   T   T   T
  0.1999850026963537  0.7000023502410575  0.4975867931531646   T   T   T
  0.2998863289918874  0.6000226354441407  0.4976084325321849   T   T   T
  0.1999903634662727  0.7999939817617328  0.4287217287872012   T   T   T
  0.2999932141827590  0.8999850682935971  0.4287288875551840   T   T   T
  0.1999938136472446  0.8999867830219505  0.4975870805356533   T   T   T
  0.2999695248722187  0.8000111297691083  0.4975870820681247   T   T   T
  0.4000016414226607  0.9999807922895672  0.4287735396921022   T   T   T
  0.4999907727288813  0.1000148249982146  0.4288156320992998   T   T   T
  0.3999974035990847  0.0988175024347477  0.4987325294314138   T   T   T
  0.5000619676889316  0.9999523945080734  0.4976249504647823   T   T   T
  0.4000219754468619  0.2000950894458554  0.4285040473085483   T   T   T
  0.4999732905457394  0.2999676438947222  0.4285348676126400   T   T   T
  0.3996284374372238  0.3025469666666757  0.4989472624526741   T   T   T
  0.5010621604370207  0.1996142273638414  0.4985598008726688   T   T   T
  0.3999662944055102  0.4000355932120916  0.4286140416732365   T   T   T
  0.4999031195352130  0.4999948718045990  0.4284804286967050   T   T   T
  0.3994160340353436  0.4999439866135829  0.4977980427042780   T   T   T
  0.4999817235103738  0.3998712237074772  0.4977598162709517   T   T   T
  0.3998283884664823  0.6000076844838415  0.4286699022431687   T   T   T
  0.4999447966837408  0.7000746107164219  0.4287367073683007   T   T   T
  0.3997874406101783  0.7002040662194906  0.4976216571092011   T   T   T
  0.4974502971891308  0.6008320101380327  0.4980851204218041   T   T   T
  0.3999692953355340  0.8000229162455051  0.4287143487878400   T   T   T
  0.4999921764708630  0.9000296190433966  0.4287209457001614   T   T   T
  0.3999799547069793  0.8999855589148000  0.4976086692202755   T   T   T
  0.4998184962366525  0.8001837941865592  0.4976042561684005   T   T   T
  0.6000170021406397  0.0000282572651829  0.4287188109607958   T   T   T
  0.7000088351664010  0.1001044072368583  0.4287946255946228   T   T   T
  0.6000622384547509  0.0998194242582742  0.4976994724292814   T   T   T
  0.7000113495077449  0.0000259855149405  0.4976222484522169   T   T   T
  0.6001303190031048  0.1999924921504029  0.4286075859419915   T   T   T
  0.7001066799474160  0.2999058797135288  0.4287183571327912   T   T   T
  0.6001321947848834  0.2999008980105528  0.4978157246866486   T   T   T
  0.7000472739791528  0.1997244594498956  0.4992032802212001   T   T   T
  0.6001391702047545  0.3997874710798271  0.4285069441163046   T   T   T
  0.7001646452129374  0.4999401813912457  0.4286881205956535   T   T   T
  0.5999575983804568  0.4990975565836679  0.4976997363437307   T   T   T
  0.7000637748532528  0.3993832977617410  0.4992474291213335   T   T   T
  0.5999952382366565  0.6001611327709230  0.4284495661489512   T   T   T
  0.7000444480047063  0.7000461671861181  0.4287633993397393   T   T   T
  0.5999323786651901  0.7026859212705898  0.4977602326087528   T   T   T
  0.7016447474591091  0.6012029626236597  0.4987193042874559   T   T   T
  0.5999985797412626  0.8001879779376792  0.4286280015873490   T   T   T
  0.7000141057710627  0.9000495550010444  0.4287234031973030   T   T   T
  0.6000023890643106  0.9000964109350633  0.4975912594910340   T   T   T
  0.7001622130932688  0.8001878667740727  0.4976148003246898   T   T   T
  0.7999998752968298  0.0000105900896034  0.4287342498175437   T   T   T
  0.8999919359490013  0.1000002381503132  0.4287435254400181   T   T   T
  0.8000076030713229  0.0998659317656110  0.4976995766188587   T   T   T
  0.9000026771498680  0.9999978178251412  0.4975971579866388   T   T   T
  0.7999189436714957  0.2001064074895368  0.4287737842028700   T   T   T
  0.8998826423147869  0.2999851657995793  0.4287822492993095   T   T   T
  0.8000035284122949  0.3000176647763555  0.4993267136172497   T   T   T
  0.9001343807215358  0.1999431679457279  0.4976766652330242   T   T   T
  0.7999162407793287  0.3999262107665263  0.4288036589541330   T   T   T
  0.8999799622701831  0.4999903410140127  0.4287929052643850   T   T   T
  0.8007402797008091  0.5000720193246021  0.4988614726384648   T   T   T
  0.9001491370530561  0.3999901804056409  0.4977699739390395   T   T   T
  0.8000759810164417  0.5999412980299038  0.4288066727733413   T   T   T
  0.9000344436155941  0.7000046483573008  0.4287313099003570   T   T   T
  0.8001853652079046  0.7001693481421594  0.4976658150123467   T   T   T
  0.9001060331962879  0.6000419738693443  0.4976557257410453   T   T   T
  0.8000283244134540  0.8000297441129632  0.4287213159109196   T   T   T
  0.9000043440136419  0.9000072156963199  0.4287237936232440   T   T   T
  0.8000184704044679  0.9000310039397822  0.4975920486139653   T   T   T
  0.9000261394019853  0.8000155890406454  0.4975881113629265   T   T   T
  0.0000000000000000  0.0000000000000000  0.2886110000000031   F   F   F
  0.1000000000000014  0.1000000000000014  0.2886110000000031   F   F   F
  0.0000000000000000  0.1000000000000014  0.3590739999999997   F   F   F
  0.1000000000000014  0.0000000000000000  0.3590739999999997   F   F   F
  0.0000000000000000  0.2000000000000028  0.2886110000000031   F   F   F
  0.1000000000000014  0.2999999999999972  0.2886110000000031   F   F   F
  0.0000000000000000  0.2999999999999972  0.3590739999999997   F   F   F
  0.1000000000000014  0.2000000000000028  0.3590739999999997   F   F   F
  0.0000000000000000  0.3999999999999986  0.2886110000000031   F   F   F
  0.1000000000000014  0.5000000000000000  0.2886110000000031   F   F   F
  0.0000000000000000  0.5000000000000000  0.3590739999999997   F   F   F
  0.1000000000000014  0.3999999999999986  0.3590739999999997   F   F   F
  0.0000000000000000  0.6000000000000014  0.2886110000000031   F   F   F
  0.1000000000000014  0.7000000000000028  0.2886110000000031   F   F   F
  0.0000000000000000  0.7000000000000028  0.3590739999999997   F   F   F
  0.1000000000000014  0.6000000000000014  0.3590739999999997   F   F   F
  0.0000000000000000  0.7999999999999972  0.2886110000000031   F   F   F
  0.1000000000000014  0.8999999999999986  0.2886110000000031   F   F   F
  0.0000000000000000  0.8999999999999986  0.3590739999999997   F   F   F
  0.1000000000000014  0.7999999999999972  0.3590739999999997   F   F   F
  0.2000000000000028  0.0000000000000000  0.2886110000000031   F   F   F
  0.2999999999999972  0.1000000000000014  0.2886110000000031   F   F   F
  0.2000000000000028  0.1000000000000014  0.3590739999999997   F   F   F
  0.2999999999999972  0.0000000000000000  0.3590739999999997   F   F   F
  0.2000000000000028  0.2000000000000028  0.2886110000000031   F   F   F
  0.2999999999999972  0.2999999999999972  0.2886110000000031   F   F   F
  0.2000000000000028  0.2999999999999972  0.3590739999999997   F   F   F
  0.2999999999999972  0.2000000000000028  0.3590739999999997   F   F   F
  0.2000000000000028  0.3999999999999986  0.2886110000000031   F   F   F
  0.2999999999999972  0.5000000000000000  0.2886110000000031   F   F   F
  0.2000000000000028  0.5000000000000000  0.3590739999999997   F   F   F
  0.2999999999999972  0.3999999999999986  0.3590739999999997   F   F   F
  0.2000000000000028  0.6000000000000014  0.2886110000000031   F   F   F
  0.2999999999999972  0.7000000000000028  0.2886110000000031   F   F   F
  0.2000000000000028  0.7000000000000028  0.3590739999999997   F   F   F
  0.2999999999999972  0.6000000000000014  0.3590739999999997   F   F   F
  0.2000000000000028  0.7999999999999972  0.2886110000000031   F   F   F
  0.2999999999999972  0.8999999999999986  0.2886110000000031   F   F   F
  0.2000000000000028  0.8999999999999986  0.3590739999999997   F   F   F
  0.2999999999999972  0.7999999999999972  0.3590739999999997   F   F   F
  0.3999999999999986  0.0000000000000000  0.2886110000000031   F   F   F
  0.5000000000000000  0.1000000000000014  0.2886110000000031   F   F   F
  0.3999999999999986  0.1000000000000014  0.3590739999999997   F   F   F
  0.5000000000000000  0.0000000000000000  0.3590739999999997   F   F   F
  0.3999999999999986  0.2000000000000028  0.2886110000000031   F   F   F
  0.5000000000000000  0.2999999999999972  0.2886110000000031   F   F   F
  0.3999999999999986  0.2999999999999972  0.3590739999999997   F   F   F
  0.5000000000000000  0.2000000000000028  0.3590739999999997   F   F   F
  0.3999999999999986  0.3999999999999986  0.2886110000000031   F   F   F
  0.5000000000000000  0.5000000000000000  0.2886110000000031   F   F   F
  0.3999999999999986  0.5000000000000000  0.3590739999999997   F   F   F
  0.5000000000000000  0.3999999999999986  0.3590739999999997   F   F   F
  0.3999999999999986  0.6000000000000014  0.2886110000000031   F   F   F
  0.5000000000000000  0.7000000000000028  0.2886110000000031   F   F   F
  0.3999999999999986  0.7000000000000028  0.3590739999999997   F   F   F
  0.5000000000000000  0.6000000000000014  0.3590739999999997   F   F   F
  0.3999999999999986  0.7999999999999972  0.2886110000000031   F   F   F
  0.5000000000000000  0.8999999999999986  0.2886110000000031   F   F   F
  0.3999999999999986  0.8999999999999986  0.3590739999999997   F   F   F
  0.5000000000000000  0.7999999999999972  0.3590739999999997   F   F   F
  0.6000000000000014  0.0000000000000000  0.2886110000000031   F   F   F
  0.7000000000000028  0.1000000000000014  0.2886110000000031   F   F   F
  0.6000000000000014  0.1000000000000014  0.3590739999999997   F   F   F
  0.7000000000000028  0.0000000000000000  0.3590739999999997   F   F   F
  0.6000000000000014  0.2000000000000028  0.2886110000000031   F   F   F
  0.7000000000000028  0.2999999999999972  0.2886110000000031   F   F   F
  0.6000000000000014  0.2999999999999972  0.3590739999999997   F   F   F
  0.7000000000000028  0.2000000000000028  0.3590739999999997   F   F   F
  0.6000000000000014  0.3999999999999986  0.2886110000000031   F   F   F
  0.7000000000000028  0.5000000000000000  0.2886110000000031   F   F   F
  0.6000000000000014  0.5000000000000000  0.3590739999999997   F   F   F
  0.7000000000000028  0.3999999999999986  0.3590739999999997   F   F   F
  0.6000000000000014  0.6000000000000014  0.2886110000000031   F   F   F
  0.7000000000000028  0.7000000000000028  0.2886110000000031   F   F   F
  0.6000000000000014  0.7000000000000028  0.3590739999999997   F   F   F
  0.7000000000000028  0.6000000000000014  0.3590739999999997   F   F   F
  0.6000000000000014  0.7999999999999972  0.2886110000000031   F   F   F
  0.7000000000000028  0.8999999999999986  0.2886110000000031   F   F   F
  0.6000000000000014  0.8999999999999986  0.3590739999999997   F   F   F
  0.7000000000000028  0.7999999999999972  0.3590739999999997   F   F   F
  0.7999999999999972  0.0000000000000000  0.2886110000000031   F   F   F
  0.8999999999999986  0.1000000000000014  0.2886110000000031   F   F   F
  0.7999999999999972  0.1000000000000014  0.3590739999999997   F   F   F
  0.8999999999999986  0.0000000000000000  0.3590739999999997   F   F   F
  0.7999999999999972  0.2000000000000028  0.2886110000000031   F   F   F
  0.8999999999999986  0.2999999999999972  0.2886110000000031   F   F   F
  0.7999999999999972  0.2999999999999972  0.3590739999999997   F   F   F
  0.8999999999999986  0.2000000000000028  0.3590739999999997   F   F   F
  0.7999999999999972  0.3999999999999986  0.2886110000000031   F   F   F
  0.8999999999999986  0.5000000000000000  0.2886110000000031   F   F   F
  0.7999999999999972  0.5000000000000000  0.3590739999999997   F   F   F
  0.8999999999999986  0.3999999999999986  0.3590739999999997   F   F   F
  0.7999999999999972  0.6000000000000014  0.2886110000000031   F   F   F
  0.8999999999999986  0.7000000000000028  0.2886110000000031   F   F   F
  0.7999999999999972  0.7000000000000028  0.3590739999999997   F   F   F
  0.8999999999999986  0.6000000000000014  0.3590739999999997   F   F   F
  0.7999999999999972  0.7999999999999972  0.2886110000000031   F   F   F
  0.8999999999999986  0.8999999999999986  0.2886110000000031   F   F   F
  0.7999999999999972  0.8999999999999986  0.3590739999999997   F   F   F
  0.8999999999999986  0.7999999999999972  0.3590739999999997   F   F   F
  0.0000731250038327  0.9999377856796881  0.4989231602686707   T   T   T
  0.1001272718442248  0.0999926035321149  0.4989322806191613   T   T   T
  0.0000483980301495  0.1000073564406936  0.4284814536642876   T   T   T
  0.1000835733384628  0.0000228365234648  0.4284794894915491   T   T   T
  0.0001083325554887  0.1999641239094168  0.4989438719947319   T   T   T
  0.1001091885371807  0.3000000446385706  0.4989176286995280   T   T   T
  0.9999582383404828  0.3000136966812471  0.4285296902159180   T   T   T
  0.1001169250495783  0.2000121548258442  0.4285011739436457   T   T   T
  0.0000644114645887  0.4000531344222137  0.4989232549137846   T   T   T
  0.1000657686387497  0.5000345295074643  0.4989039071241992   T   T   T
  0.9999340635842181  0.5000192255843007  0.4285042884034170   T   T   T
  0.1000465598631464  0.3999726109504738  0.4284671206572059   T   T   T
  0.9999954359770935  0.6000550314210932  0.4989093409915675   T   T   T
  0.1000399809121696  0.7000094307366251  0.4989232484762262   T   T   T
  0.9999622447516641  0.6999788282254773  0.4284751063206685   T   T   T
  0.1000165155565252  0.6000002057206610  0.4284708297109673   T   T   T
  0.9999929871890471  0.7999679390965654  0.4989288374790505   T   T   T
  0.1000772188543691  0.8999834774277088  0.4989340644953426   T   T   T
  0.0000103741655636  0.8999678440580220  0.4284814720197291   T   T   T
  0.1000294822103607  0.7999915634738811  0.4284807711563829   T   T   T
  0.2001123637721776  0.0000292359587576  0.4989205605218578   T   T   T
  0.3001252998928994  0.1000975156090564  0.4994330285325534   T   T   T
  0.2002057059695792  0.1001303149731419  0.4285477504020724   T   T   T
  0.3001457935487749  0.0001407889008326  0.4285447554540291   T   T   T
  0.2000290851277619  0.2000239661222804  0.4991401600330789   T   T   T
  0.2999980775006086  0.3001088265996498  0.4992132132442562   T   T   T
  0.2001787409609886  0.2998736674109607  0.4285231197439504   T   T   T
  0.3007069757526836  0.1999888537007058  0.4291694283509537   T   T   T
  0.2000677361676799  0.4000286918162467  0.4988567756581109   T   T   T
  0.2999711468915825  0.5001228320600456  0.4988549312624406   T   T   T
  0.2000647663131322  0.5000068061721905  0.4284597498985762   T   T   T
  0.3000592991627993  0.3999876391930293  0.4284406591587664   T   T   T
  0.2000733061572279  0.6000424030624804  0.4989013461919007   T   T   T
  0.3001164396292426  0.7000020526524537  0.4989042641604078   T   T   T
  0.2000645724194315  0.6999893532590806  0.4284746781075498   T   T   T
  0.3001239445315362  0.6000096548025909  0.4284697769548065   T   T   T
  0.2000860835080807  0.7999800760271514  0.4989249718070197   T   T   T
  0.3000608720421820  0.8999748497929407  0.4989246293487606   T   T   T
  0.2000856191046808  0.9000187353760865  0.4284792626351920   T   T   T
  0.3001000875078697  0.7999528547235746  0.4284731110367264   T   T   T
  0.3999272166433626  0.9998314469045159  0.4991201313701472   T   T   T
  0.4996503750163986  0.0997509789658517  0.4989654329243708   T   T   T
  0.3998717408422364  0.1006857588561784  0.4291540629732833   T   T   T
  0.4998117924107060  0.0000132236204080  0.4284836506391555   T   T   T
  0.3994006950035630  0.1998757965890205  0.5034423570084059   T   T   T
  0.4997592018711866  0.3002971263397528  0.4967794217717969   T   T   T
  0.3997421042308602  0.2995165733195508  0.4289698119871307   T   T   T
  0.4991102014472278  0.1998017535696650  0.4289057594312649   T   T   T
  0.3994245112542948  0.4008042642257542  0.4982269535525830   T   T   T
  0.4996578753742851  0.5011222381920779  0.4988486646466616   T   T   T
  0.4002292768776747  0.5002616000017353  0.4285406013648692   T   T   T
  0.4998844929828061  0.4006366870083335  0.4283637687850935   T   T   T
  0.3997177356938975  0.6000855595412796  0.4989792803343776   T   T   T
  0.4999403585273626  0.7001540489010668  0.4991057311152654   T   T   T
  0.4001979736893193  0.6998497736511745  0.4285189420545094   T   T   T
  0.5004760766700888  0.6000064101168086  0.4289754134442327   T   T   T
  0.4000535065917042  0.7999476329699091  0.4988916058351592   T   T   T
  0.4999531428242164  0.8999040733265039  0.4988917773240278   T   T   T
  0.4000327937467194  0.8999851817148788  0.4284841209403676   T   T   T
  0.5001110283327680  0.7998279562546861  0.4285056671754844   T   T   T
  0.5998773937984772  0.9998762328348423  0.4988281528663597   T   T   T
  0.6999793712228181  0.0997393563549212  0.4989112671766370   T   T   T
  0.5998126254349456  0.0999366748043877  0.4284489502081069   T   T   T
  0.6999659069487674  0.9999255186071141  0.4284704100972219   T   T   T
  0.5996253033745140  0.1992804987921918  0.4979454816893977   T   T   T
  0.6999587890297028  0.2998167021155436  0.4974543477627226   T   T   T
  0.5998706676551629  0.2998686984553862  0.4282241177418954   T   T   T
  0.7001387864671701  0.1997976871600488  0.4286999964468991   T   T   T
  0.6001510800810932  0.4004323894772673  0.4969213441724515   T   T   T
  0.6999904765993722  0.5014650910205718  0.4994283966199733   T   T   T
  0.5999889454931835  0.5010521166221136  0.4289927463255183   T   T   T
  0.7001153902508588  0.4006395049107225  0.4287575327361368   T   T   T
  0.5996468463823175  0.6021099166865357  0.5014392642556030   T   T   T
  0.6997667184002706  0.7002158821870355  0.4992254239305272   T   T   T
  0.5999578219502599  0.6996293123256876  0.4288238054648599   T   T   T
  0.6993470051596838  0.6000248309129509  0.4292000975972249   T   T   T
  0.5999086100183145  0.8003177907133259  0.4989359040686518   T   T   T
  0.6999287259094173  0.8998609414069433  0.4989037223796695   T   T   T
  0.5999439438068332  0.8998940389992017  0.4284584851399925   T   T   T
  0.6998265492509187  0.7997973126174182  0.4285195653073305   T   T   T
  0.8000128479913315  0.9998635000625826  0.4988900524927832   T   T   T
  0.9001190704784914  0.0998833387118491  0.4989500389431081   T   T   T
  0.8000707826940745  0.1000558459303693  0.4285589414009929   T   T   T
  0.9000028193912544  0.9999540091383083  0.4284747901921233   T   T   T
  0.8006187289976994  0.1995793904377105  0.4995180380533160   T   T   T
  0.9003075985581321  0.2999810181045126  0.4993103384157696   T   T   T
  0.8002104288039867  0.3000663787005589  0.4288146090988668   T   T   T
  0.8999865671715621  0.2000401995096170  0.4285770087173694   T   T   T
  0.8003897044064149  0.4005428047593573  0.4991292872897335   T   T   T
  0.9000390410110832  0.5001624786744260  0.4991243113455646   T   T   T
  0.7997193673797351  0.5002150790921536  0.4289122440126361   T   T   T
  0.8999048032619836  0.4000746612208612  0.4286166829587182   T   T   T
  0.8000316887170379  0.6002224875487606  0.4993445053051746   T   T   T
  0.8999119329657372  0.7000036618099670  0.4989071790238167   T   T   T
  0.7997594578975367  0.6998156784687202  0.4285632516332823   T   T   T
  0.8998382909148357  0.5999899318374381  0.4285355843605919   T   T   T
  0.7998961591269101  0.7998956976990194  0.4989006420272633   T   T   T
  0.8999708066332689  0.8999039385181460  0.4989219487407567   T   T   T
  0.7999313648620776  0.8998842075507588  0.4284745520890333   T   T   T
  0.8999173577803031  0.7999207086500770  0.4284757088550225   T   T   T
  0.0000000000000000  0.0000000000000000  0.3590739999999997   F   F   F
  0.1000000000000014  0.1000000000000014  0.3590739999999997   F   F   F
  0.0000000000000000  0.1000000000000014  0.2886110000000031   F   F   F
  0.1000000000000014  0.0000000000000000  0.2886110000000031   F   F   F
  0.0000000000000000  0.2000000000000028  0.3590739999999997   F   F   F
  0.1000000000000014  0.2999999999999972  0.3590739999999997   F   F   F
  0.0000000000000000  0.2999999999999972  0.2886110000000031   F   F   F
  0.1000000000000014  0.2000000000000028  0.2886110000000031   F   F   F
  0.0000000000000000  0.3999999999999986  0.3590739999999997   F   F   F
  0.1000000000000014  0.5000000000000000  0.3590739999999997   F   F   F
  0.0000000000000000  0.5000000000000000  0.2886110000000031   F   F   F
  0.1000000000000014  0.3999999999999986  0.2886110000000031   F   F   F
  0.0000000000000000  0.6000000000000014  0.3590739999999997   F   F   F
  0.1000000000000014  0.7000000000000028  0.3590739999999997   F   F   F
  0.0000000000000000  0.7000000000000028  0.2886110000000031   F   F   F
  0.1000000000000014  0.6000000000000014  0.2886110000000031   F   F   F
  0.0000000000000000  0.7999999999999972  0.3590739999999997   F   F   F
  0.1000000000000014  0.8999999999999986  0.3590739999999997   F   F   F
  0.0000000000000000  0.8999999999999986  0.2886110000000031   F   F   F
  0.1000000000000014  0.7999999999999972  0.2886110000000031   F   F   F
  0.2000000000000028  0.0000000000000000  0.3590739999999997   F   F   F
  0.2999999999999972  0.1000000000000014  0.3590739999999997   F   F   F
  0.2000000000000028  0.1000000000000014  0.2886110000000031   F   F   F
  0.2999999999999972  0.0000000000000000  0.2886110000000031   F   F   F
  0.2000000000000028  0.2000000000000028  0.3590739999999997   F   F   F
  0.2999999999999972  0.2999999999999972  0.3590739999999997   F   F   F
  0.2000000000000028  0.2999999999999972  0.2886110000000031   F   F   F
  0.2999999999999972  0.2000000000000028  0.2886110000000031   F   F   F
  0.2000000000000028  0.3999999999999986  0.3590739999999997   F   F   F
  0.2999999999999972  0.5000000000000000  0.3590739999999997   F   F   F
  0.2000000000000028  0.5000000000000000  0.2886110000000031   F   F   F
  0.2999999999999972  0.3999999999999986  0.2886110000000031   F   F   F
  0.2000000000000028  0.6000000000000014  0.3590739999999997   F   F   F
  0.2999999999999972  0.7000000000000028  0.3590739999999997   F   F   F
  0.2000000000000028  0.7000000000000028  0.2886110000000031   F   F   F
  0.2999999999999972  0.6000000000000014  0.2886110000000031   F   F   F
  0.2000000000000028  0.7999999999999972  0.3590739999999997   F   F   F
  0.2999999999999972  0.8999999999999986  0.3590739999999997   F   F   F
  0.2000000000000028  0.8999999999999986  0.2886110000000031   F   F   F
  0.2999999999999972  0.7999999999999972  0.2886110000000031   F   F   F
  0.3999999999999986  0.0000000000000000  0.3590739999999997   F   F   F
  0.5000000000000000  0.1000000000000014  0.3590739999999997   F   F   F
  0.3999999999999986  0.1000000000000014  0.2886110000000031   F   F   F
  0.5000000000000000  0.0000000000000000  0.2886110000000031   F   F   F
  0.3999999999999986  0.2000000000000028  0.3590739999999997   F   F   F
  0.5000000000000000  0.2999999999999972  0.3590739999999997   F   F   F
  0.3999999999999986  0.2999999999999972  0.2886110000000031   F   F   F
  0.5000000000000000  0.2000000000000028  0.2886110000000031   F   F   F
  0.3999999999999986  0.3999999999999986  0.3590739999999997   F   F   F
  0.5000000000000000  0.5000000000000000  0.3590739999999997   F   F   F
  0.3999999999999986  0.5000000000000000  0.2886110000000031   F   F   F
  0.5000000000000000  0.3999999999999986  0.2886110000000031   F   F   F
  0.3999999999999986  0.6000000000000014  0.3590739999999997   F   F   F
  0.5000000000000000  0.7000000000000028  0.3590739999999997   F   F   F
  0.3999999999999986  0.7000000000000028  0.2886110000000031   F   F   F
  0.5000000000000000  0.6000000000000014  0.2886110000000031   F   F   F
  0.3999999999999986  0.7999999999999972  0.3590739999999997   F   F   F
  0.5000000000000000  0.8999999999999986  0.3590739999999997   F   F   F
  0.3999999999999986  0.8999999999999986  0.2886110000000031   F   F   F
  0.5000000000000000  0.7999999999999972  0.2886110000000031   F   F   F
  0.6000000000000014  0.0000000000000000  0.3590739999999997   F   F   F
  0.7000000000000028  0.1000000000000014  0.3590739999999997   F   F   F
  0.6000000000000014  0.1000000000000014  0.2886110000000031   F   F   F
  0.7000000000000028  0.0000000000000000  0.2886110000000031   F   F   F
  0.6000000000000014  0.2000000000000028  0.3590739999999997   F   F   F
  0.7000000000000028  0.2999999999999972  0.3590739999999997   F   F   F
  0.6000000000000014  0.2999999999999972  0.2886110000000031   F   F   F
  0.7000000000000028  0.2000000000000028  0.2886110000000031   F   F   F
  0.6000000000000014  0.3999999999999986  0.3590739999999997   F   F   F
  0.7000000000000028  0.5000000000000000  0.3590739999999997   F   F   F
  0.6000000000000014  0.5000000000000000  0.2886110000000031   F   F   F
  0.7000000000000028  0.3999999999999986  0.2886110000000031   F   F   F
  0.6000000000000014  0.6000000000000014  0.3590739999999997   F   F   F
  0.7000000000000028  0.7000000000000028  0.3590739999999997   F   F   F
  0.6000000000000014  0.7000000000000028  0.2886110000000031   F   F   F
  0.7000000000000028  0.6000000000000014  0.2886110000000031   F   F   F
  0.6000000000000014  0.7999999999999972  0.3590739999999997   F   F   F
  0.7000000000000028  0.8999999999999986  0.3590739999999997   F   F   F
  0.6000000000000014  0.8999999999999986  0.2886110000000031   F   F   F
  0.7000000000000028  0.7999999999999972  0.2886110000000031   F   F   F
  0.7999999999999972  0.0000000000000000  0.3590739999999997   F   F   F
  0.8999999999999986  0.1000000000000014  0.3590739999999997   F   F   F
  0.7999999999999972  0.1000000000000014  0.2886110000000031   F   F   F
  0.8999999999999986  0.0000000000000000  0.2886110000000031   F   F   F
  0.7999999999999972  0.2000000000000028  0.3590739999999997   F   F   F
  0.8999999999999986  0.2999999999999972  0.3590739999999997   F   F   F