SYSTEM=MgO-rocksalt
ISMEAR=0
SIGMA=0.05
EDIFF=1E-6
ALGO=ALL
ISTART=0
IBRION=-1
NSW=0
ISYM=2

LHFCALC = .TRUE.
HFSCREEN = 0.2
GGA = PE
IVDW=13
VDW_S8=1.19528249
VDW_A1=0.38663183
VDW_A2=5.19133469

ENCUT=520
PREC=Accurate  #default (Normal) usually safe, structures/energies change little with Accurate
LASPH=.TRUE.
LREAL=Auto

NELM=200
NELMIN=8
NCORE=4
KPAR=2
LWAVE=.FALSE.
LCHARG=.FALSE.
ISPIN=2
