Au 
 1.0000000000000000
    21.1388521970183838    0.0000000000000000    0.0000000000000000
     0.0000000000000000   21.1388521970183838    0.0000000000000000
     0.0000000000000000    0.0000000000000000   22.1138852197018352
  Au
   2
Direct
  0.5427179908470071  0.4572820091060117  0.6183003367637087
  0.4572820091529928  0.5427179908000189  0.6183003367637087
