Au 
 1.0000000000000000
    21.1388521970183838    0.0000000000000000    0.0000000000000000
     0.0000000000000000   21.1388521970183838    0.0000000000000000
     0.0000000000000000    0.0000000000000000   22.1138852197018352
  Au
   2
Direct
  0.5428158105162220  0.5571841536227302  0.6209096357703681
  0.4571841893898089  0.6428157747491434  0.6209096357703681
