Ag                                      
   1.0000000000000000     
    20.0000000000000000    0.0000000000000000    0.0000000000000000
     0.0000000000000000   20.0000000000000000    0.0000000000000000
     0.0000000000000000    0.0000000000000000   20.0000000000000000
   Ag
     8
Direct
  0.5201910239186086  0.4056644549151238  0.5035990789094063
  0.4149648468641354  0.4770008782670193  0.4500385378195372
  0.4401521648718220  0.4852276610783005  0.5829570947175865
  0.5040689791891584  0.5971844356380732  0.6309857124840034
  0.5846307417299833  0.5170895357916289  0.5533304617041442
  0.4786106281741743  0.5911263053761253  0.4999285564027620
  0.5590081938073095  0.5087351817218372  0.4205117627623420
  0.4539471760398098  0.5811192010618884  0.3689229809452228

  0.00000000E+00  0.00000000E+00  0.00000000E+00
  0.00000000E+00  0.00000000E+00  0.00000000E+00
  0.00000000E+00  0.00000000E+00  0.00000000E+00
  0.00000000E+00  0.00000000E+00  0.00000000E+00
  0.00000000E+00  0.00000000E+00  0.00000000E+00
  0.00000000E+00  0.00000000E+00  0.00000000E+00
  0.00000000E+00  0.00000000E+00  0.00000000E+00
  0.00000000E+00  0.00000000E+00  0.00000000E+00
