Ag                                      
   1.0000000000000000     
    20.0000000000000000    0.0000000000000000    0.0000000000000000
     0.0000000000000000   20.0000000000000000    0.0000000000000000
     0.0000000000000000    0.0000000000000000   20.0000000000000000
   Ag
     8
Direct
  0.4387046289351116  0.4005502716862405  0.4868807941735114
  0.5744670260958619  0.5747112929676395  0.4147815904716348
  0.5633913843477375  0.4444670358391673  0.4596486039908289
  0.3842116845784580  0.5220203649268124  0.5372399355184305
  0.4937812543274506  0.5997705544091652  0.5241126304633276
  0.6157541607317503  0.5387020372432029  0.5460978110183000
  0.5043820467401556  0.4727950631893948  0.5845873591957716
  0.4515763815034790  0.5188022607233835  0.4166245158281987

  0.00000000E+00  0.00000000E+00  0.00000000E+00
  0.00000000E+00  0.00000000E+00  0.00000000E+00
  0.00000000E+00  0.00000000E+00  0.00000000E+00
  0.00000000E+00  0.00000000E+00  0.00000000E+00
  0.00000000E+00  0.00000000E+00  0.00000000E+00
  0.00000000E+00  0.00000000E+00  0.00000000E+00
  0.00000000E+00  0.00000000E+00  0.00000000E+00
  0.00000000E+00  0.00000000E+00  0.00000000E+00
