Cu Mg  O                                
   1.00000000000000     
    21.1388521970183838    0.0000000000000000    0.0000000000000000
     0.0000000000000000   21.1388521970183838    0.0000000000000000
     0.0000000000000000    0.0000000000000000   22.1138852197018352
   Cu
     4
Selective dynamics
Direct
  0.4002292820752587  0.4213287017938114  0.5928940098417073   T   T   T
  0.4006262650917023  0.5057286488019130  0.6565974946215718   T   T   T
  0.4008508373886883  0.6135778707828123  0.6912101839945564   T   T   T
  0.4002489905959266  0.5942042823795148  0.5903158945820195   T   T   T
 
  0.00000000E+00  0.00000000E+00  0.00000000E+00
  0.00000000E+00  0.00000000E+00  0.00000000E+00
  0.00000000E+00  0.00000000E+00  0.00000000E+00
  0.00000000E+00  0.00000000E+00  0.00000000E+00
