SYSTEM=MgO-rocksalt
ISMEAR=0
SIGMA=0.05
EDIFF=1E-6
ALGO=ALL
ISTART=0
IBRION=-1
NSW=0
ISYM=2
DIPOL=0.5 0.5 0.5
IDIPOL = 3
LDIPOL = .TRUE.

LHFCALC = .TRUE.
GGA     = B5
AEXX    = 0.2
AGGAX   = 0.72
AGGAC   = 0.81
ALDAC   = 0.19

IVDW=1
VDW_S6=1.05

ENCUT=520
PREC=Accurate  #default (Normal) usually safe, structures/energies change little with Accurate
LASPH=.TRUE.
LREAL=Auto
ISPIN=1
NELM=200
NELMIN=8
NCORE=4
KPAR=2
LWAVE=.FALSE.
LCHARG=.FALSE.
