Cu Mg  O                                
   1.0000000000000000     
    21.1388521970183838    0.0000000000000000    0.0000000000000000
     0.0000000000000000   21.1388521970183838    0.0000000000000000
     0.0000000000000000    0.0000000000000000   22.1138852197018352
   Cu  
     4 
Selective dynamics
Direct
  0.4000004480375736  0.4174218203819354  0.5906660549476681   T   T   T
  0.4899308865538619  0.4878283987779670  0.6004793198616503   T   T   T
  0.3100747401471107  0.4878287876881333  0.6004793198616503   T   T   T
  0.4000051786633918  0.4919902435579048  0.6641876077377480   T   T   T
