ag4                                     
   1.0000000000000000     
    20.0000000000000000    0.0000000000000000    0.0000000000000000
     0.0000000000000000   20.0000000000000000    0.0000000000000000
     0.0000000000000000    0.0000000000000000   20.0000000000000000
   Ag
     4
Direct
  0.0346464377151463  0.0099175343325157  0.0687094164279074
  0.9644016420355683  0.9836143040005254  0.9314480231917841
  0.9431095850450006  0.9219071350393619  0.0741606450302186
  0.8964119852042813  0.0568067266275989  0.0100308153500848

  0.00000000E+00  0.00000000E+00  0.00000000E+00
  0.00000000E+00  0.00000000E+00  0.00000000E+00
  0.00000000E+00  0.00000000E+00  0.00000000E+00
  0.00000000E+00  0.00000000E+00  0.00000000E+00
