ag4                                     
   1.00000000000000     
    20.0000000000000000    0.0000000000000000    0.0000000000000000
     0.0000000000000000   20.0000000000000000    0.0000000000000000
     0.0000000000000000    0.0000000000000000   20.0000000000000000
   Ag
     4
Direct
  0.0292593484879262  0.0195552104501147  0.0543925048876801
  0.9706364865036292  0.9805563505203168  0.9456214209107401
  0.9312039474455389  0.9262224559532584  0.0635489680431434
  0.0689002175629128  0.0736659830813124  0.9364371061584364
 
  0.00000000E+00  0.00000000E+00  0.00000000E+00
  0.00000000E+00  0.00000000E+00  0.00000000E+00
  0.00000000E+00  0.00000000E+00  0.00000000E+00
  0.00000000E+00  0.00000000E+00  0.00000000E+00
