Cu                                      
   1.00000000000000     
    20.0000000000000000    0.0000000000000000    0.0000000000000000
     0.0000000000000000   20.0000000000000000    0.0000000000000000
     0.0000000000000000    0.0000000000000000   20.0000000000000000
   Cu
     6
Direct
  0.5501809469942103  0.5145717424551677  0.5342510983464450
  0.4761339666720872  0.5916183071027561  0.4749744698347698
  0.5478222335019822  0.4080365582948389  0.4823992610101584
  0.5337134559483374  0.5093299012406902  0.4132830127296643
  0.4501044482890961  0.4738688252303476  0.4951916512427701
  0.4497402042542831  0.5483676515811950  0.5874044614861944
 
  0.00000000E+00  0.00000000E+00  0.00000000E+00
  0.00000000E+00  0.00000000E+00  0.00000000E+00
  0.00000000E+00  0.00000000E+00  0.00000000E+00
  0.00000000E+00  0.00000000E+00  0.00000000E+00
  0.00000000E+00  0.00000000E+00  0.00000000E+00
  0.00000000E+00  0.00000000E+00  0.00000000E+00
