Ag Mg  O                                
   1.0000000000000000     
    21.1388521970183838    0.0000000000000000    0.0000000000000000
     0.0000000000000000   21.1388521970183838    0.0000000000000000
     0.0000000000000000    0.0000000000000000   22.1138852197018352
   Ag  
     4 
Selective dynamics
Direct
  0.4042095873354082  0.5958381519818451  0.6278723564505460   T   T   T
  0.3169043014088320  0.6831422709970079  0.6133681872227472   T   T   T
  0.5831417979344289  0.4169047744714039  0.6133681872227472   T   T   T
  0.4958376789192733  0.5042095873354097  0.6278723564505460   T   T   T
