Ag                                      
   1.0000000000000000     
    20.0000000000000000    0.0000000000000000    0.0000000000000000
     0.0000000000000000   20.0000000000000000    0.0000000000000000
     0.0000000000000000    0.0000000000000000   20.0000000000000000
   Ag
     6
Direct
  0.5014572607231146  0.4329750024964010  0.4966951638043889
  0.4290248523040627  0.4999640731510823  0.5932276131374000
  0.4307129523285470  0.3668338003062924  0.5881832942383055
  0.5009557068340040  0.5710132388541693  0.4992273051613799
  0.5700910206988431  0.5039317400567317  0.4071814747726762
  0.4303308381714260  0.6332147343803175  0.5935620613908410

  0.00000000E+00  0.00000000E+00  0.00000000E+00
  0.00000000E+00  0.00000000E+00  0.00000000E+00
  0.00000000E+00  0.00000000E+00  0.00000000E+00
  0.00000000E+00  0.00000000E+00  0.00000000E+00
  0.00000000E+00  0.00000000E+00  0.00000000E+00
  0.00000000E+00  0.00000000E+00  0.00000000E+00
