Au Mg  O                                
   1.0000000000000000     
    21.1388521970183838    0.0000000000000000    0.0000000000000000
     0.0000000000000000   21.1388521970183838    0.0000000000000000
     0.0000000000000000    0.0000000000000000   22.1138852197018352
   Au  
     4 
Selective dynamics
Direct
  0.3999459416145967  0.5652373078338826  0.6039218717565191   T   T   T
  0.3998929506898250  0.4996634244369886  0.8180414669084612   T   T   T
  0.3998958436719562  0.4995933352289512  0.7039637585895164   T   T   T
  0.3999266544139957  0.4342048176287534  0.6037831990622422   T   T   T
