Mg  O                                   
   1.0000000000000000     
    21.1388521970183838    0.0000000000000000    0.0000000000000000
     0.0000000000000000   21.1388521970183838    0.0000000000000000
     0.0000000000000000    0.0000000000000000   30.0000000000000000
   Au   Mg   O 
    20   200   200
Selective dynamics
Direct
  0.4985128075715500  0.4341408639721678  0.6250983545202713   T   T   T
  0.3287996476451638  0.3148117337875534  0.5822956926549112   T   T   T
  0.5588369468775345  0.5437846774737338  0.6008749968372331   T   T   T
  0.5682616105292241  0.3241944043818018  0.6346491686334250   T   T   T
  0.4487824579475405  0.0972940948526911  0.6126998054586545   T   T   T
  0.6377804653358097  0.2134724096441339  0.6277512921046031   T   T   T
  0.5093445003275208  0.2104096527634091  0.6351362986068664   T   T   T
  0.4303099406584830  0.5417432729378474  0.5990443096510544   T   T   T
  0.6865435868772169  0.5494400112119828  0.6030665875716795   T   T   T
  0.5747268611123885  0.0994889466797386  0.6200743267910080   T   T   T
  0.3714166072835178  0.4308985431464883  0.6140228268955994   T   T   T
  0.8187478111721759  0.3350546158373070  0.5969873994111778   T   T   T
  0.4388654424191579  0.3194351180110889  0.6291576647406876   T   T   T
  0.2528324816114823  0.4173845014017937  0.5863945711143421   T   T   T
  0.6958528670380505  0.3281097942141530  0.6222788259643094   T   T   T
  0.6840131969378838  0.1139497770601776  0.5784589478311901   T   T   T
  0.6272370619676882  0.4369603293881392  0.6223549724698983   T   T   T
  0.7563523371175521  0.4443518537793557  0.6046934822446223   T   T   T
  0.4070896887444668  0.2111476937857257  0.5810290778334369   T   T   T
  0.7568423809352939  0.2215973806050646  0.5895175653356789   T   T   T
  0.0000462085227285  0.9997899411742512  0.4305093751742913   T   T   T
  0.0998876541034279  0.0998226368928415  0.4305358922199620   T   T   T
  0.0001887559850703  0.0995585666070470  0.5010899984986172   T   T   T
  0.0998175908285083  0.9994930357039294  0.5010138634590827   T   T   T
 -0.0000459474927190  0.2000595831969117  0.4306393484394586   T   T   T
  0.0997235746782714  0.3001514705155613  0.4307349584735308   T   T   T
  0.0000861626124145  0.3002976598103253  0.5013110233413065   T   T   T
  0.0994796571677973  0.1996100068209198  0.5011663979331387   T   T   T
  0.9996982528875376  0.4002588836577844  0.4306093688903478   T   T   T
  0.0998705605427981  0.5002912691157274  0.4306381810880623   T   T   T
  0.9996935569241043  0.5006185824222437  0.5011073469546425   T   T   T
  0.0986821039276855  0.4007371189052309  0.5014067830462593   T   T   T
  0.9998814566921627  0.6001180812617624  0.4305379170020532   T   T   T
  0.0999681241549951  0.7000568376023464  0.4305216236419992   T   T   T
  0.9999431459381887  0.7000727404678772  0.5010053269119379   T   T   T
  0.0997624394443340  0.6004808331302244  0.5010757568846164   T   T   T
 -0.0000100142701598  0.7998795156503301  0.4304983104510087   T   T   T
  0.0999665323449951  0.8998054572606670  0.4305018472334174   T   T   T
  0.0001016056477052  0.8995791943962164  0.5009949745228142   T   T   T
  0.0999382529018657  0.7998715677378203  0.5010016900084691   T   T   T
  0.1998949741478867  0.9997183509185215  0.4305181545839683   T   T   T
  0.2999422737880694  0.0995228218380373  0.4307239955732695   T   T   T
  0.1992793058591061  0.0991163302915936  0.5011484312769370   T   T   T
  0.2995590706226915  0.9992325962358547  0.5011603265192291   T   T   T
  0.1996011944379028  0.1998770879539676  0.4306701460469984   T   T   T
  0.2999934451444103  0.3001220157292159  0.4301537149061067   T   T   T
  0.1982142840785869  0.2997020616734529  0.5019143840824154   T   T   T
  0.2976018088110925  0.1981385152497582  0.5014527873817968   T   T   T
  0.1999720378619297  0.4004028564795578  0.4302862645082821   T   T   T
  0.3003861289871817  0.5006701430296747  0.4305426670162749   T   T   T
  0.1998292873562045  0.5016037890488537  0.5012832513096815   T   T   T
  0.3015729014900170  0.4024280641208018  0.5014949797884788   T   T   T
  0.2000094457999946  0.6002990075979100  0.4305490049483666   T   T   T
  0.3000919019182504  0.7000655601498070  0.4305489693709804   T   T   T
  0.1999202320707656  0.7002226827324544  0.5010522334520788   T   T   T
  0.3000118767054037  0.6006900680563508  0.5012016321975078   T   T   T
  0.1999841858322445  0.7999187703205844  0.4305172452209894   T   T   T
  0.2999748987123554  0.8997853822716857  0.4305511212199701   T   T   T
  0.1998091682611514  0.8996369742193997  0.5010096008360461   T   T   T
  0.2998974315270194  0.7999159615584587  0.5010383639778554   T   T   T
  0.3999975284163184  0.9996633850581744  0.4305999750114106   T   T   T
  0.4998204409100767  0.0997644321484833  0.4306190176456651   T   T   T
  0.4000846197250735  0.0974155105503194  0.5024053834131180   T   T   T
  0.4999752063515163  0.9992531111354339  0.5015586827254976   T   T   T
  0.3999906024485340  0.1997328147827884  0.4296384693934094   T   T   T
  0.5006083123680254  0.3002990180298044  0.4305012232583613   T   T   T
  0.4024475694339822  0.3024010830985033  0.5011063711492433   T   T   T
  0.5024549419215348  0.1998747217015702  0.5015205098746831   T   T   T
  0.4005991390894537  0.4009052443431301  0.4304751106592969   T   T   T
  0.5002556171058664  0.5002887939288878  0.4306041716874440   T   T   T
  0.4006497956462250  0.5006962605180773  0.5029287144399538   T   T   T
  0.5008628701834663  0.4008857952562688  0.5017397083338169   T   T   T
  0.4003103891409875  0.5999891588331654  0.4305664044892792   T   T   T
  0.5000813386123527  0.6998079452553069  0.4307012449567107   T   T   T
  0.4001367830317401  0.7004629559783753  0.5012027916743381   T   T   T
  0.5001668133682790  0.6001275618079993  0.5021534018104430   T   T   T
  0.4000647396660419  0.7998949670640320  0.4305445878340649   T   T   T
  0.5000085949083274  0.8998422541203198  0.4305785807890016   T   T   T
  0.3999236335367908  0.8994971729316888  0.5011111575658176   T   T   T
  0.5000400922108135  0.7998756145926029  0.5010944843664019   T   T   T
  0.5999452020553941 -0.0001474679201908  0.4306847091651729   T   T   T
  0.7000903813564066  0.0998418058032469  0.4297791019438952   T   T   T
  0.5976551358279889  0.0992632932175538  0.5021555217199329   T   T   T
  0.7002573380885815  0.9973951632444887  0.5012573490779725   T   T   T
  0.6001833248468299  0.2000784794707403  0.4305615893855904   T   T   T
  0.7000123989129612  0.3007912897954005  0.4304779187722398   T   T   T
  0.6001541949821569  0.3009441119185436  0.5015441679613487   T   T   T
  0.6990174924699333  0.2026219280063759  0.5014204440334652   T   T   T
  0.6002144426943831  0.4005194063202603  0.4306467648496069   T   T   T
  0.6999135147460259  0.5001838882715710  0.4305017110319861   T   T   T
  0.6002433645987013  0.5002959147354141  0.5024963068318289   T   T   T
  0.6999153973522012  0.4007621398420624  0.5020192357873180   T   T   T
  0.6000093387931038  0.5998567442250484  0.4306024575817992   T   T   T
  0.6999485260247743  0.6997402743213461  0.4306473089065554   T   T   T
  0.6000103535032463  0.7002484100305572  0.5012453379904902   T   T   T
  0.7001090047912891  0.6000544188979312  0.5019538324010279   T   T   T
  0.5999947094031808  0.7997847198558792  0.4305516239433645   T   T   T
  0.7000372547140545  0.8995246281434575  0.4304811188216457   T   T   T
  0.5998441545636493  0.8993901290943330  0.5010823152763803   T   T   T
  0.7000917235097969  0.7996660994855740  0.5010791456077757   T   T   T
  0.8002110860589305  0.9996479148664819  0.4306754526485987   T   T   T
  0.9002720913829177  0.0999169666997942  0.4306151411017647   T   T   T
  0.8023997311417516  0.0988128113737564  0.5015678430765595   T   T   T
  0.9005622227723981  0.9991942794549261  0.5010878747381228   T   T   T
  0.8000700096800336  0.2002712732330124  0.4304083787556279   T   T   T
  0.8997280345161984  0.3003311836219604  0.4306334292900020   T   T   T
  0.7996847641198754  0.3013784263959244  0.5023539387756349   T   T   T
  0.9010378951890419  0.2000822243934539  0.5016664111589870   T   T   T
  0.7997981543888586  0.4004891589251487  0.4304612595273772   T   T   T
  0.8996827242189437  0.5002119413848500  0.4306582423619500   T   T   T
  0.7997754401526714  0.5005522872036625  0.5019818937754019   T   T   T
  0.8999180796174042  0.4008680477219965  0.5013864856009266   T   T   T
  0.7997819690012801  0.5999185801688370  0.4306477998284281   T   T   T
  0.8999353153880146  0.6999122199258985  0.4305429060072912   T   T   T
  0.8000189735699081  0.6999441140374970  0.5011180265953689   T   T   T
  0.8999290803953388  0.6002085865610268  0.5011193670085852   T   T   T
  0.8000053370029611  0.7997330968497028  0.4305360683092541   T   T   T
  0.9000785490710776  0.8997358699814531  0.4304959909358932   T   T   T
  0.8004630534989849  0.8992782777934543  0.5010556383605189   T   T   T
  0.9001188468608952  0.7997155231357036  0.5010019658639483   T   T   T
  0.0000000000000000  0.0000000000000000  0.2886110000000031   F   F   F
  0.1000000000000014  0.1000000000000014  0.2886110000000031   F   F   F
  0.0000000000000000  0.1000000000000014  0.3590739999999997   F   F   F
  0.1000000000000014  0.0000000000000000  0.3590739999999997   F   F   F
  0.0000000000000000  0.2000000000000028  0.2886110000000031   F   F   F
  0.1000000000000014  0.2999999999999972  0.2886110000000031   F   F   F
  0.0000000000000000  0.2999999999999972  0.3590739999999997   F   F   F
  0.1000000000000014  0.2000000000000028  0.3590739999999997   F   F   F
  0.0000000000000000  0.3999999999999986  0.2886110000000031   F   F   F
  0.1000000000000014  0.5000000000000000  0.2886110000000031   F   F   F
  0.0000000000000000  0.5000000000000000  0.3590739999999997   F   F   F
  0.1000000000000014  0.3999999999999986  0.3590739999999997   F   F   F
  0.0000000000000000  0.6000000000000014  0.2886110000000031   F   F   F
  0.1000000000000014  0.7000000000000028  0.2886110000000031   F   F   F
  0.0000000000000000  0.7000000000000028  0.3590739999999997   F   F   F
  0.1000000000000014  0.6000000000000014  0.3590739999999997   F   F   F
  0.0000000000000000  0.7999999999999972  0.2886110000000031   F   F   F
  0.1000000000000014  0.8999999999999986  0.2886110000000031   F   F   F
  0.0000000000000000  0.8999999999999986  0.3590739999999997   F   F   F
  0.1000000000000014  0.7999999999999972  0.3590739999999997   F   F   F
  0.2000000000000028  0.0000000000000000  0.2886110000000031   F   F   F
  0.2999999999999972  0.1000000000000014  0.2886110000000031   F   F   F
  0.2000000000000028  0.1000000000000014  0.3590739999999997   F   F   F
  0.2999999999999972  0.0000000000000000  0.3590739999999997   F   F   F
  0.2000000000000028  0.2000000000000028  0.2886110000000031   F   F   F
  0.2999999999999972  0.2999999999999972  0.2886110000000031   F   F   F
  0.2000000000000028  0.2999999999999972  0.3590739999999997   F   F   F
  0.2999999999999972  0.2000000000000028  0.3590739999999997   F   F   F
  0.2000000000000028  0.3999999999999986  0.2886110000000031   F   F   F
  0.2999999999999972  0.5000000000000000  0.2886110000000031   F   F   F
  0.2000000000000028  0.5000000000000000  0.3590739999999997   F   F   F
  0.2999999999999972  0.3999999999999986  0.3590739999999997   F   F   F
  0.2000000000000028  0.6000000000000014  0.2886110000000031   F   F   F
  0.2999999999999972  0.7000000000000028  0.2886110000000031   F   F   F
  0.2000000000000028  0.7000000000000028  0.3590739999999997   F   F   F
  0.2999999999999972  0.6000000000000014  0.3590739999999997   F   F   F
  0.2000000000000028  0.7999999999999972  0.2886110000000031   F   F   F
  0.2999999999999972  0.8999999999999986  0.2886110000000031   F   F   F
  0.2000000000000028  0.8999999999999986  0.3590739999999997   F   F   F
  0.2999999999999972  0.7999999999999972  0.3590739999999997   F   F   F
  0.3999999999999986  0.0000000000000000  0.2886110000000031   F   F   F
  0.5000000000000000  0.1000000000000014  0.2886110000000031   F   F   F
  0.3999999999999986  0.1000000000000014  0.3590739999999997   F   F   F
  0.5000000000000000  0.0000000000000000  0.3590739999999997   F   F   F
  0.3999999999999986  0.2000000000000028  0.2886110000000031   F   F   F
  0.5000000000000000  0.2999999999999972  0.2886110000000031   F   F   F
  0.3999999999999986  0.2999999999999972  0.3590739999999997   F   F   F
  0.5000000000000000  0.2000000000000028  0.3590739999999997   F   F   F
  0.3999999999999986  0.3999999999999986  0.2886110000000031   F   F   F
  0.5000000000000000  0.5000000000000000  0.2886110000000031   F   F   F
  0.3999999999999986  0.5000000000000000  0.3590739999999997   F   F   F
  0.5000000000000000  0.3999999999999986  0.3590739999999997   F   F   F
  0.3999999999999986  0.6000000000000014  0.2886110000000031   F   F   F
  0.5000000000000000  0.7000000000000028  0.2886110000000031   F   F   F
  0.3999999999999986  0.7000000000000028  0.3590739999999997   F   F   F
  0.5000000000000000  0.6000000000000014  0.3590739999999997   F   F   F
  0.3999999999999986  0.7999999999999972  0.2886110000000031   F   F   F
  0.5000000000000000  0.8999999999999986  0.2886110000000031   F   F   F
  0.3999999999999986  0.8999999999999986  0.3590739999999997   F   F   F
  0.5000000000000000  0.7999999999999972  0.3590739999999997   F   F   F
  0.6000000000000014  0.0000000000000000  0.2886110000000031   F   F   F
  0.7000000000000028  0.1000000000000014  0.2886110000000031   F   F   F
  0.6000000000000014  0.1000000000000014  0.3590739999999997   F   F   F
  0.7000000000000028  0.0000000000000000  0.3590739999999997   F   F   F
  0.6000000000000014  0.2000000000000028  0.2886110000000031   F   F   F
  0.7000000000000028  0.2999999999999972  0.2886110000000031   F   F   F
  0.6000000000000014  0.2999999999999972  0.3590739999999997   F   F   F
  0.7000000000000028  0.2000000000000028  0.3590739999999997   F   F   F
  0.6000000000000014  0.3999999999999986  0.2886110000000031   F   F   F
  0.7000000000000028  0.5000000000000000  0.2886110000000031   F   F   F
  0.6000000000000014  0.5000000000000000  0.3590739999999997   F   F   F
  0.7000000000000028  0.3999999999999986  0.3590739999999997   F   F   F
  0.6000000000000014  0.6000000000000014  0.2886110000000031   F   F   F
  0.7000000000000028  0.7000000000000028  0.2886110000000031   F   F   F
  0.6000000000000014  0.7000000000000028  0.3590739999999997   F   F   F
  0.7000000000000028  0.6000000000000014  0.3590739999999997   F   F   F
  0.6000000000000014  0.7999999999999972  0.2886110000000031   F   F   F
  0.7000000000000028  0.8999999999999986  0.2886110000000031   F   F   F
  0.6000000000000014  0.8999999999999986  0.3590739999999997   F   F   F
  0.7000000000000028  0.7999999999999972  0.3590739999999997   F   F   F
  0.7999999999999972  0.0000000000000000  0.2886110000000031   F   F   F
  0.8999999999999986  0.1000000000000014  0.2886110000000031   F   F   F
  0.7999999999999972  0.1000000000000014  0.3590739999999997   F   F   F
  0.8999999999999986  0.0000000000000000  0.3590739999999997   F   F   F
  0.7999999999999972  0.2000000000000028  0.2886110000000031   F   F   F
  0.8999999999999986  0.2999999999999972  0.2886110000000031   F   F   F
  0.7999999999999972  0.2999999999999972  0.3590739999999997   F   F   F
  0.8999999999999986  0.2000000000000028  0.3590739999999997   F   F   F
  0.7999999999999972  0.3999999999999986  0.2886110000000031   F   F   F
  0.8999999999999986  0.5000000000000000  0.2886110000000031   F   F   F
  0.7999999999999972  0.5000000000000000  0.3590739999999997   F   F   F
  0.8999999999999986  0.3999999999999986  0.3590739999999997   F   F   F
  0.7999999999999972  0.6000000000000014  0.2886110000000031   F   F   F
  0.8999999999999986  0.7000000000000028  0.2886110000000031   F   F   F
  0.7999999999999972  0.7000000000000028  0.3590739999999997   F   F   F
  0.8999999999999986  0.6000000000000014  0.3590739999999997   F   F   F
  0.7999999999999972  0.7999999999999972  0.2886110000000031   F   F   F
  0.8999999999999986  0.8999999999999986  0.2886110000000031   F   F   F
  0.7999999999999972  0.8999999999999986  0.3590739999999997   F   F   F
  0.8999999999999986  0.7999999999999972  0.3590739999999997   F   F   F
  0.0001023680537342  0.9997705132089211  0.5024625199615869   T   T   T
  0.0998308547734699  0.0997506013955506  0.5024959734753142   T   T   T
  0.0000120199639755  0.1000697939654150  0.4302960484701355   T   T   T
  0.0999769438353974  0.0000058149967335  0.4302428890128437   T   T   T
  0.0001591406159668  0.1999323025438378  0.5026385007435435   T   T   T
  0.0996786043965050  0.3000861353898737  0.5027102856142083   T   T   T
  0.9998806734519120  0.2999684642799257  0.4304719659538768   T   T   T
  0.1000052355690924  0.2001278262987363  0.4303523040591333   T   T   T
  0.9999054643502527  0.4001736211968162  0.5025975247181649   T   T   T
  0.0998796909220293  0.5002831291338966  0.5025789654927096   T   T   T
  0.0001012547441136  0.4999856513601424  0.4303004060541393   T   T   T
  0.1003144591896412  0.3999220817908278  0.4306089224687610   T   T   T
  0.0000735227505331  0.6002416804036510  0.5024831321386445   T   T   T
  0.0999285556222480  0.7001804546773002  0.5024752327019394   T   T   T
  0.0000623765410376  0.7000482782074108  0.4302190588444572   T   T   T
  0.1000393421192885  0.6000281170716071  0.4302648248818633   T   T   T
  0.0000667954002085  0.7999948608307992  0.5024207664608591   T   T   T
  0.0999272530723793  0.8998772715931466  0.5024516652790215   T   T   T
  0.0000175611991938  0.9000238428150654  0.4302271212073346   T   T   T
  0.0999816225429390  0.8000424836817331  0.4302226707028003   T   T   T
  0.1997414893459653  0.9997587024710628  0.5024763337729932   T   T   T
  0.2996266686421054  0.0995068574692613  0.5025954227821579   T   T   T
  0.1999980250042904  0.1000776635352783  0.4303592556458107   T   T   T
  0.2999646021841096 -0.0000168861196352  0.4303202406718527   T   T   T
  0.1992744350800180  0.1997283879508240  0.5026600038002900   T   T   T
  0.2988267046811823  0.2986704000093404  0.5036255084190532   T   T   T
  0.2002795384034875  0.3002981317606158  0.4310036906088646   T   T   T
  0.3001621020815762  0.2002083343180492  0.4309304545271478   T   T   T
  0.1989012562183917  0.4003018905655954  0.5044616951609732   T   T   T
  0.2997298142048258  0.5013023447045389  0.5011829775178019   T   T   T
  0.1998707240248770  0.4997182439956756  0.4304588451480060   T   T   T
  0.2995475798635582  0.3994580694741068  0.4308242840102586   T   T   T
  0.1997557340148791  0.6004927061873162  0.5024583214531398   T   T   T
  0.2998502266721505  0.7003020214683557  0.5024711753600892   T   T   T
  0.1999104230513159  0.7001124119057547  0.4302452333131864   T   T   T
  0.2999016093807538  0.6003597657169513  0.4301774235115112   T   T   T
  0.1998560766894628  0.8000561026908588  0.5024607997855370   T   T   T
  0.2997664908732367  0.8998810279457199  0.5024793073681311   T   T   T
  0.1999435588052991  0.9000166243845460  0.4302352466337016   T   T   T
  0.2999522829992544  0.8000695513198461  0.4302399991865376   T   T   T
  0.3997953453251927  0.9992368594120958  0.5025387013797401   T   T   T
  0.4993841533763816  0.0999141881511719  0.5012609192363140   T   T   T
  0.3995921822423533  0.1004351155425200  0.4307452279148500   T   T   T
  0.4998841756098066 -0.0000048921227432  0.4303014719007674   T   T   T
  0.3985297594373894  0.1991445071778220  0.5045021495437617   T   T   T
  0.5003926659675991  0.2994596583772698  0.5015953055912892   T   T   T
  0.3994405425835539  0.2991872187371824  0.4308504171604415   T   T   T
  0.4991827693249573  0.1998388228682298  0.4305606663016736   T   T   T
  0.4005745880035601  0.4003370618615414  0.5007958317331057   T   T   T
  0.5003386514800611  0.5000502834575543  0.5009849583866957   T   T   T
  0.3998452527467261  0.5002986573455571  0.4301693847663330   T   T   T
  0.5000275788656143  0.3997253879528902  0.4300061607406322   T   T   T
  0.3998261168727145  0.6009345073724499  0.5025832107738046   T   T   T
  0.4999749178223779  0.7004312544498532  0.5025357840558048   T   T   T
  0.3999508854385184  0.7001430004783414  0.4303184360872124   T   T   T
  0.4999298091985155  0.6003115599416836  0.4303606416817009   T   T   T
  0.3998926492580412  0.8001799827834973  0.5024871183282938   T   T   T
  0.5000211746634365  0.8998992010900017  0.5024855955546714   T   T   T
  0.3999416488356425  0.9000133198516965  0.4302660971765365   T   T   T
  0.4999978777922789  0.8001215501418154  0.4302725904960829   T   T   T
  0.6002609629447937  0.9997217329335705  0.5022014289669319   T   T   T
  0.7021996417414919  0.0982351300908654  0.5038354511782378   T   T   T
  0.6006367014821782  0.0998879567364365  0.4306681454234469   T   T   T
  0.7002533966224650  0.0003341440007245  0.4305918898768094   T   T   T
  0.6003564925407451  0.1996640542496235  0.5012233580537047   T   T   T
  0.6997224642253234  0.3007833914633561  0.5009670261264526   T   T   T
  0.6000623544698152  0.2997115577005174  0.4299982232517431   T   T   T
  0.7005815127685208  0.1992566094486329  0.4307884795422111   T   T   T
  0.6000025255157199  0.3999901495144838  0.5018545956729394   T   T   T
  0.7000514866281774  0.5001466654453719  0.5009091623926265   T   T   T
  0.6000142384678873  0.5002177671034327  0.4301408543203680   T   T   T
  0.7001049379086732  0.4000572757121278  0.4299564173219519   T   T   T
  0.5999599638775559  0.6007979155407585  0.5023184214020422   T   T   T
  0.7001081436314629  0.7003041417541644  0.5025525287341955   T   T   T
  0.6000048042810592  0.7001588746263788  0.4303002751996666   T   T   T
  0.6999915911282548  0.6003148069396426  0.4303101067571591   T   T   T
  0.6000457093269529  0.8001443468515826  0.5024726342727084   T   T   T
  0.7001954194368843  0.8994820092705285  0.5024263647420427   T   T   T
  0.6001279014400533  0.9000628226442131  0.4302581208586780   T   T   T
  0.7000712386628473  0.8000161872582808  0.4302468519873067   T   T   T
  0.8004410777862111  0.9994722569504277  0.5025658926247942   T   T   T
  0.9006252041839344  0.0997656831070218  0.5026358745944199   T   T   T
  0.7998955558807929  0.1001683791102308  0.4308561428441436   T   T   T
  0.9000381475232523  0.0000570390299939  0.4303013729706741   T   T   T
  0.8007106933355623  0.1993150962838625  0.5039987375458207   T   T   T
  0.9003907331576675  0.3000490179647952  0.5033292852369118   T   T   T
  0.8002908356190244  0.2994930985727925  0.4306062515130726   T   T   T
  0.8998053632618891  0.2000225685794649  0.4307558858075214   T   T   T
  0.8004960677114713  0.4006854214520057  0.5009743875728052   T   T   T
  0.9002718666474920  0.5003496184457212  0.5024363021655769   T   T   T
  0.8002670421297133  0.5002800292501264  0.4301330224633181   T   T   T
  0.9002161957682839  0.3998543812838460  0.4303006141991508   T   T   T
  0.8002658470338075  0.6003751369752812  0.5024260868919328   T   T   T
  0.9001627342451890  0.7001263647547716  0.5024594758061143   T   T   T
  0.8000824200392225  0.7000811937869988  0.4302694082194877   T   T   T
  0.9001359772502294  0.6001220222060411  0.4302705068225504   T   T   T
  0.8002270316387282  0.7999878018327559  0.5024658956384300   T   T   T
  0.9002652151933079  0.8997826046432328  0.5024536193291442   T   T   T
  0.8000514942908612  0.9000026560023717  0.4302649797103601   T   T   T
  0.9000582774216227  0.8000300325132855  0.4302255561010454   T   T   T
  0.0000000000000000  0.0000000000000000  0.3590739999999997   F   F   F
  0.1000000000000014  0.1000000000000014  0.3590739999999997   F   F   F
  0.0000000000000000  0.1000000000000014  0.2886110000000031   F   F   F
  0.1000000000000014  0.0000000000000000  0.2886110000000031   F   F   F
  0.0000000000000000  0.2000000000000028  0.3590739999999997   F   F   F
  0.1000000000000014  0.2999999999999972  0.3590739999999997   F   F   F
  0.0000000000000000  0.2999999999999972  0.2886110000000031   F   F   F
  0.1000000000000014  0.2000000000000028  0.2886110000000031   F   F   F
  0.0000000000000000  0.3999999999999986  0.3590739999999997   F   F   F
  0.1000000000000014  0.5000000000000000  0.3590739999999997   F   F   F
  0.0000000000000000  0.5000000000000000  0.2886110000000031   F   F   F
  0.1000000000000014  0.3999999999999986  0.2886110000000031   F   F   F
  0.0000000000000000  0.6000000000000014  0.3590739999999997   F   F   F
  0.1000000000000014  0.7000000000000028  0.3590739999999997   F   F   F
  0.0000000000000000  0.7000000000000028  0.2886110000000031   F   F   F
  0.1000000000000014  0.6000000000000014  0.2886110000000031   F   F   F
  0.0000000000000000  0.7999999999999972  0.3590739999999997   F   F   F
  0.1000000000000014  0.8999999999999986  0.3590739999999997   F   F   F
  0.0000000000000000  0.8999999999999986  0.2886110000000031   F   F   F
  0.1000000000000014  0.7999999999999972  0.2886110000000031   F   F   F
  0.2000000000000028  0.0000000000000000  0.3590739999999997   F   F   F
  0.2999999999999972  0.1000000000000014  0.3590739999999997   F   F   F
  0.2000000000000028  0.1000000000000014  0.2886110000000031   F   F   F
  0.2999999999999972  0.0000000000000000  0.2886110000000031   F   F   F
  0.2000000000000028  0.2000000000000028  0.3590739999999997   F   F   F
  0.2999999999999972  0.2999999999999972  0.3590739999999997   F   F   F
  0.2000000000000028  0.2999999999999972  0.2886110000000031   F   F   F
  0.2999999999999972  0.2000000000000028  0.2886110000000031   F   F   F
  0.2000000000000028  0.3999999999999986  0.3590739999999997   F   F   F
  0.2999999999999972  0.5000000000000000  0.3590739999999997   F   F   F
  0.2000000000000028  0.5000000000000000  0.2886110000000031   F   F   F
  0.2999999999999972  0.3999999999999986  0.2886110000000031   F   F   F
  0.2000000000000028  0.6000000000000014  0.3590739999999997   F   F   F
  0.2999999999999972  0.7000000000000028  0.3590739999999997   F   F   F
  0.2000000000000028  0.7000000000000028  0.2886110000000031   F   F   F
  0.2999999999999972  0.6000000000000014  0.2886110000000031   F   F   F
  0.2000000000000028  0.7999999999999972  0.3590739999999997   F   F   F
  0.2999999999999972  0.8999999999999986  0.3590739999999997   F   F   F
  0.2000000000000028  0.8999999999999986  0.2886110000000031   F   F   F
  0.2999999999999972  0.7999999999999972  0.2886110000000031   F   F   F
  0.3999999999999986  0.0000000000000000  0.3590739999999997   F   F   F
  0.5000000000000000  0.1000000000000014  0.3590739999999997   F   F   F
  0.3999999999999986  0.1000000000000014  0.2886110000000031   F   F   F
  0.5000000000000000  0.0000000000000000  0.2886110000000031   F   F   F
  0.3999999999999986  0.2000000000000028  0.3590739999999997   F   F   F
  0.5000000000000000  0.2999999999999972  0.3590739999999997   F   F   F
  0.3999999999999986  0.2999999999999972  0.2886110000000031   F   F   F
  0.5000000000000000  0.2000000000000028  0.2886110000000031   F   F   F
  0.3999999999999986  0.3999999999999986  0.3590739999999997   F   F   F
  0.5000000000000000  0.5000000000000000  0.3590739999999997   F   F   F
  0.3999999999999986  0.5000000000000000  0.2886110000000031   F   F   F
  0.5000000000000000  0.3999999999999986  0.2886110000000031   F   F   F
  0.3999999999999986  0.6000000000000014  0.3590739999999997   F   F   F
  0.5000000000000000  0.7000000000000028  0.3590739999999997   F   F   F
  0.3999999999999986  0.7000000000000028  0.2886110000000031   F   F   F
  0.5000000000000000  0.6000000000000014  0.2886110000000031   F   F   F
  0.3999999999999986  0.7999999999999972  0.3590739999999997   F   F   F
  0.5000000000000000  0.8999999999999986  0.3590739999999997   F   F   F
  0.3999999999999986  0.8999999999999986  0.2886110000000031   F   F   F
  0.5000000000000000  0.7999999999999972  0.2886110000000031   F   F   F
  0.6000000000000014  0.0000000000000000  0.3590739999999997   F   F   F
  0.7000000000000028  0.1000000000000014  0.3590739999999997   F   F   F
  0.6000000000000014  0.1000000000000014  0.2886110000000031   F   F   F
  0.7000000000000028  0.0000000000000000  0.2886110000000031   F   F   F
  0.6000000000000014  0.2000000000000028  0.3590739999999997   F   F   F
  0.7000000000000028  0.2999999999999972  0.3590739999999997   F   F   F
  0.6000000000000014  0.2999999999999972  0.2886110000000031   F   F   F
  0.7000000000000028  0.2000000000000028  0.2886110000000031   F   F   F
  0.6000000000000014  0.3999999999999986  0.3590739999999997   F   F   F
  0.7000000000000028  0.5000000000000000  0.3590739999999997   F   F   F
  0.6000000000000014  0.5000000000000000  0.2886110000000031   F   F   F
  0.7000000000000028  0.3999999999999986  0.2886110000000031   F   F   F
  0.6000000000000014  0.6000000000000014  0.3590739999999997   F   F   F
  0.7000000000000028  0.7000000000000028  0.3590739999999997   F   F   F
  0.6000000000000014  0.7000000000000028  0.2886110000000031   F   F   F
  0.7000000000000028  0.6000000000000014  0.2886110000000031   F   F   F
  0.6000000000000014  0.7999999999999972  0.3590739999999997   F   F   F
  0.7000000000000028  0.8999999999999986  0.3590739999999997   F   F   F
  0.6000000000000014  0.8999999999999986  0.2886110000000031   F   F   F
  0.7000000000000028  0.7999999999999972  0.2886110000000031   F   F   F
  0.7999999999999972  0.0000000000000000  0.3590739999999997   F   F   F
  0.8999999999999986  0.1000000000000014  0.3590739999999997   F   F   F
  0.7999999999999972  0.1000000000000014  0.2886110000000031   F   F   F
  0.8999999999999986  0.0000000000000000  0.2886110000000031   F   F   F
  0.7999999999999972  0.2000000000000028  0.3590739999999997   F   F   F
  0.8999999999999986  0.2999999999999972  0.3590739999999997   F   F   F