Mg  O                                   
   1.0000000000000000     
    21.1388521970183838    0.0000000000000000    0.0000000000000000
     0.0000000000000000   21.1388521970183838    0.0000000000000000
     0.0000000000000000    0.0000000000000000   30.0000000000000000
   Au   Mg   O 
    20   200   200
Selective dynamics
Direct
  0.4990266685365103  0.4383497211435711  0.6213380047756104   T   T   T
  0.3232596969270492  0.3179665681382712  0.5848301626247028   T   T   T
  0.5607926738359990  0.5480147208848175  0.5980685873065642   T   T   T
  0.5676619133369655  0.3270096065280468  0.6285999461350534   T   T   T
  0.4454013487941296  0.0986307335980667  0.6125583720271418   T   T   T
  0.6358943286311811  0.2160664912891548  0.6234109971287851   T   T   T
  0.5078539066048390  0.2135264214182594  0.6291935463686857   T   T   T
  0.4315829460997072  0.5456907349033687  0.5957795811274230   T   T   T
  0.6893514457898218  0.5524118187102937  0.6039542196710481   T   T   T
  0.5720329229359983  0.1016738524064079  0.6174773757497650   T   T   T
  0.3707645199935451  0.4359150885149439  0.6122050588557071   T   T   T
  0.8199139227279023  0.3367391229019421  0.5954052138439100   T   T   T
  0.4387951893558188  0.3243033703819451  0.6243640737890380   T   T   T
  0.2520281082958750  0.4236583407579619  0.5847928966054634   T   T   T
  0.6957109392648516  0.3302877989400336  0.6191783238338584   T   T   T
  0.6845078567538296  0.1132507214663485  0.5792532773895620   T   T   T
  0.6273797734831020  0.4398136520116449  0.6191580368164231   T   T   T
  0.7568611043915181  0.4456627272266744  0.6039686278291960   T   T   T
  0.3908169317244367  0.2102538828473141  0.5920201020570873   T   T   T
  0.7557103410875144  0.2233694081534810  0.5869055901210659   T   T   T
  0.0000325970188388  0.9998049273354872  0.4305412284771860   T   T   T
  0.1000144589319128  0.0999061046099173  0.4304909737862236   T   T   T
  0.0003516157963403  0.0995410519182987  0.5011035604691413   T   T   T
  0.0999549729632376  0.9996059458275962  0.5010223723269450   T   T   T
 -0.0000135121853359  0.2000919436572609  0.4307006544132708   T   T   T
  0.0998070479785258  0.3000744509512098  0.4306866007106840   T   T   T
  0.0002945800157386  0.3002864809958779  0.5014400217516487   T   T   T
  0.0997092466681299  0.1995455342356194  0.5012104500248564   T   T   T
  0.9997229272955466  0.4002506630111033  0.4306145699219346   T   T   T
  0.0997662553794023  0.5003232033708704  0.4305756816662034   T   T   T
  0.9997437860209468  0.5007455666412030  0.5011152176504191   T   T   T
  0.0985839779695012  0.4007698967168115  0.5015609521273632   T   T   T
  0.9998963382881748  0.6002101760462880  0.4305259784805213   T   T   T
  0.0999661251725871  0.7001393653385438  0.4305344477127886   T   T   T
  0.9999161120827531  0.7001856404921112  0.5011024781680108   T   T   T
  0.0997418204019243  0.6006320624951597  0.5010541847439116   T   T   T
 -0.0000260534845835  0.7999003023232447  0.4305312044086357   T   T   T
  0.1000890841415500  0.8999536554258709  0.4305455489266430   T   T   T
  0.0001629346051566  0.8996566691520445  0.5010704166849670   T   T   T
  0.0999216779163151  0.8000662906568358  0.5010749357141473   T   T   T
  0.2000085790485896  0.9999008945450386  0.4305771677773662   T   T   T
  0.3000959741889255  0.0996853594112103  0.4308224884357721   T   T   T
  0.1995248875415598  0.0994103520618182  0.5013022158730180   T   T   T
  0.2996403355096174  0.9994873618558201  0.5013360729090393   T   T   T
  0.1998802398792257  0.1998509511751469  0.4307023871152468   T   T   T
  0.3002022611954061  0.2999774952278961  0.4301937427927108   T   T   T
  0.1983583119427219  0.2994272827898188  0.5019144013796869   T   T   T
  0.2987857692215866  0.1984200362130420  0.5016186119016729   T   T   T
  0.1999042364272718  0.4003622597551865  0.4302107625010522   T   T   T
  0.3003741335206666  0.5006343977495037  0.4305338072712402   T   T   T
  0.1996293242377027  0.5017969713709226  0.5010804278388362   T   T   T
  0.3018303151846727  0.4018807470003271  0.5012754740884975   T   T   T
  0.1999805300609109  0.6004337997556732  0.4305033939281833   T   T   T
  0.3000508623703767  0.7001568800842988  0.4305991009994460   T   T   T
  0.1997933403364978  0.7004738881805925  0.5009941420497968   T   T   T
  0.2997667239200571  0.6007798823825309  0.5012581391577271   T   T   T
  0.1999455514693208  0.8000447552276498  0.4305226559249909   T   T   T
  0.2999603253750622  0.8998899420920196  0.4306027686925989   T   T   T
  0.1999054668933883  0.8998054737110214  0.5011339709211572   T   T   T
  0.2998110837408773  0.8000716958811510  0.5010796546541479   T   T   T
  0.3999152457262686 -0.0000243766636273  0.4307614878047838   T   T   T
  0.4996705663481345  0.0999062387575710  0.4307300480476871   T   T   T
  0.4000903668818526  0.0987013400312249  0.5027550393617261   T   T   T
  0.4997311822976838  0.9993814215698782  0.5015190728769719   T   T   T
  0.4000182705061666  0.1997528134645596  0.4303573607752837   T   T   T
  0.5001561623887665  0.3000459364278306  0.4306302566924211   T   T   T
  0.4019062375400117  0.3007363751914912  0.5021958128818216   T   T   T
  0.5007291284981231  0.1998423810318866  0.5021152613926720   T   T   T
  0.4006688715121702  0.4004494109077357  0.4306208838594911   T   T   T
  0.5000296491933536  0.5001803860363702  0.4306029225137524   T   T   T
  0.4004561631516705  0.5001441458972977  0.5028922510440063   T   T   T
  0.5005063426188844  0.4002960396226311  0.5017496181658606   T   T   T
  0.4002882937073231  0.5999852839798144  0.4305960212043237   T   T   T
  0.4999973176377511  0.6998729111929030  0.4308705135753374   T   T   T
  0.3999517545432552  0.7007416483419857  0.5013632351657478   T   T   T
  0.4999364788044638  0.6001327016580723  0.5024433740104910   T   T   T
  0.4000422718926654  0.7999723509529544  0.4306051914058815   T   T   T
  0.4999039715920090  0.8999467722391258  0.4306587287213716   T   T   T
  0.3997643127530551  0.8997770044797424  0.5011781649550581   T   T   T
  0.4998871349356850  0.8001354152051346  0.5012477391436724   T   T   T
  0.5998537312819987  0.0000153097949763  0.4307391672939815   T   T   T
  0.6999219818927082  0.0997697550424890  0.4299331198554293   T   T   T
  0.5974119240275624  0.0993000024455261  0.5024319418056687   T   T   T
  0.7000630452660785  0.9973235893794391  0.5011976346800524   T   T   T
  0.5996110204564530  0.1999712101558251  0.4306559674020954   T   T   T
  0.6996657486809038  0.3006815011492944  0.4304837355133512   T   T   T
  0.5995075896392298  0.3006299095899890  0.5015209617180987   T   T   T
  0.6980634478075485  0.2022434795753721  0.5013562735256043   T   T   T
  0.5999264519273120  0.4004049710615870  0.4305762627691507   T   T   T
  0.6998350352433887  0.5002857523945490  0.4305329500674264   T   T   T
  0.6000578526196461  0.4999038493436384  0.5023890894440798   T   T   T
  0.6995581825688802  0.4006966981781104  0.5018312113766108   T   T   T
  0.5998507412757316  0.5997823754056938  0.4306755870846015   T   T   T
  0.6999193069000884  0.6997521068144553  0.4306820650568934   T   T   T
  0.5999490922834781  0.7004761431030497  0.5013299638132251   T   T   T
  0.7001982983252842  0.6001631488174933  0.5022235130715681   T   T   T
  0.5999300207800981  0.7998471314777853  0.4306225479454632   T   T   T
  0.6999890239438289  0.8994955314510692  0.4304237020500989   T   T   T
  0.5997799461574437  0.8994661589458407  0.5011052458724400   T   T   T
  0.7001740702774442  0.7997285388729841  0.5010888563273345   T   T   T
  0.8001178966955884  0.9996889251112930  0.4307115373281508   T   T   T
  0.9002531581272277  0.0999017771975420  0.4307746526198979   T   T   T
  0.8022259454429863  0.0985511867913324  0.5019287451764666   T   T   T
  0.9005410416290972  0.9992136216178502  0.5012102075302128   T   T   T
  0.7998963380482453  0.2001974157557021  0.4302235927421660   T   T   T
  0.8997029033784354  0.3002931324509124  0.4307196171847014   T   T   T
  0.7994128994416781  0.3016076752975141  0.5022157284258203   T   T   T
  0.9013002369845092  0.2000108147897755  0.5020450678037929   T   T   T
  0.7996999499391072  0.4005062234710000  0.4304677926432893   T   T   T
  0.8997039275235540  0.5003042712483559  0.4306382966517645   T   T   T
  0.7997488147969261  0.5006702253832110  0.5018858997949978   T   T   T
  0.9000065725503796  0.4010497485589701  0.5013976003320073   T   T   T
  0.7997683338023199  0.5999557467715014  0.4306575968144636   T   T   T
  0.8999088224844569  0.6998956332029435  0.4305434717445231   T   T   T
  0.8001034217759707  0.7000364294958910  0.5012380674137321   T   T   T
  0.8999909378845070  0.6002708623414434  0.5012330412044658   T   T   T
  0.8000421021162457  0.7997557383865470  0.4305168866933761   T   T   T
  0.9000626784926632  0.8997579420355971  0.4305690457376415   T   T   T
  0.8004659878490585  0.8992901569467321  0.5010284545640580   T   T   T
  0.9001283419514378  0.7997439312225535  0.5010704583645612   T   T   T
  0.0000000000000000  0.0000000000000000  0.2886110000000031   F   F   F
  0.1000000000000014  0.1000000000000014  0.2886110000000031   F   F   F
  0.0000000000000000  0.1000000000000014  0.3590739999999997   F   F   F
  0.1000000000000014  0.0000000000000000  0.3590739999999997   F   F   F
  0.0000000000000000  0.2000000000000028  0.2886110000000031   F   F   F
  0.1000000000000014  0.2999999999999972  0.2886110000000031   F   F   F
  0.0000000000000000  0.2999999999999972  0.3590739999999997   F   F   F
  0.1000000000000014  0.2000000000000028  0.3590739999999997   F   F   F
  0.0000000000000000  0.3999999999999986  0.2886110000000031   F   F   F
  0.1000000000000014  0.5000000000000000  0.2886110000000031   F   F   F
  0.0000000000000000  0.5000000000000000  0.3590739999999997   F   F   F
  0.1000000000000014  0.3999999999999986  0.3590739999999997   F   F   F
  0.0000000000000000  0.6000000000000014  0.2886110000000031   F   F   F
  0.1000000000000014  0.7000000000000028  0.2886110000000031   F   F   F
  0.0000000000000000  0.7000000000000028  0.3590739999999997   F   F   F
  0.1000000000000014  0.6000000000000014  0.3590739999999997   F   F   F
  0.0000000000000000  0.7999999999999972  0.2886110000000031   F   F   F
  0.1000000000000014  0.8999999999999986  0.2886110000000031   F   F   F
  0.0000000000000000  0.8999999999999986  0.3590739999999997   F   F   F
  0.1000000000000014  0.7999999999999972  0.3590739999999997   F   F   F
  0.2000000000000028  0.0000000000000000  0.2886110000000031   F   F   F
  0.2999999999999972  0.1000000000000014  0.2886110000000031   F   F   F
  0.2000000000000028  0.1000000000000014  0.3590739999999997   F   F   F
  0.2999999999999972  0.0000000000000000  0.3590739999999997   F   F   F
  0.2000000000000028  0.2000000000000028  0.2886110000000031   F   F   F
  0.2999999999999972  0.2999999999999972  0.2886110000000031   F   F   F
  0.2000000000000028  0.2999999999999972  0.3590739999999997   F   F   F
  0.2999999999999972  0.2000000000000028  0.3590739999999997   F   F   F
  0.2000000000000028  0.3999999999999986  0.2886110000000031   F   F   F
  0.2999999999999972  0.5000000000000000  0.2886110000000031   F   F   F
  0.2000000000000028  0.5000000000000000  0.3590739999999997   F   F   F
  0.2999999999999972  0.3999999999999986  0.3590739999999997   F   F   F
  0.2000000000000028  0.6000000000000014  0.2886110000000031   F   F   F
  0.2999999999999972  0.7000000000000028  0.2886110000000031   F   F   F
  0.2000000000000028  0.7000000000000028  0.3590739999999997   F   F   F
  0.2999999999999972  0.6000000000000014  0.3590739999999997   F   F   F
  0.2000000000000028  0.7999999999999972  0.2886110000000031   F   F   F
  0.2999999999999972  0.8999999999999986  0.2886110000000031   F   F   F
  0.2000000000000028  0.8999999999999986  0.3590739999999997   F   F   F
  0.2999999999999972  0.7999999999999972  0.3590739999999997   F   F   F
  0.3999999999999986  0.0000000000000000  0.2886110000000031   F   F   F
  0.5000000000000000  0.1000000000000014  0.2886110000000031   F   F   F
  0.3999999999999986  0.1000000000000014  0.3590739999999997   F   F   F
  0.5000000000000000  0.0000000000000000  0.3590739999999997   F   F   F
  0.3999999999999986  0.2000000000000028  0.2886110000000031   F   F   F
  0.5000000000000000  0.2999999999999972  0.2886110000000031   F   F   F
  0.3999999999999986  0.2999999999999972  0.3590739999999997   F   F   F
  0.5000000000000000  0.2000000000000028  0.3590739999999997   F   F   F
  0.3999999999999986  0.3999999999999986  0.2886110000000031   F   F   F
  0.5000000000000000  0.5000000000000000  0.2886110000000031   F   F   F
  0.3999999999999986  0.5000000000000000  0.3590739999999997   F   F   F
  0.5000000000000000  0.3999999999999986  0.3590739999999997   F   F   F
  0.3999999999999986  0.6000000000000014  0.2886110000000031   F   F   F
  0.5000000000000000  0.7000000000000028  0.2886110000000031   F   F   F
  0.3999999999999986  0.7000000000000028  0.3590739999999997   F   F   F
  0.5000000000000000  0.6000000000000014  0.3590739999999997   F   F   F
  0.3999999999999986  0.7999999999999972  0.2886110000000031   F   F   F
  0.5000000000000000  0.8999999999999986  0.2886110000000031   F   F   F
  0.3999999999999986  0.8999999999999986  0.3590739999999997   F   F   F
  0.5000000000000000  0.7999999999999972  0.3590739999999997   F   F   F
  0.6000000000000014  0.0000000000000000  0.2886110000000031   F   F   F
  0.7000000000000028  0.1000000000000014  0.2886110000000031   F   F   F
  0.6000000000000014  0.1000000000000014  0.3590739999999997   F   F   F
  0.7000000000000028  0.0000000000000000  0.3590739999999997   F   F   F
  0.6000000000000014  0.2000000000000028  0.2886110000000031   F   F   F
  0.7000000000000028  0.2999999999999972  0.2886110000000031   F   F   F
  0.6000000000000014  0.2999999999999972  0.3590739999999997   F   F   F
  0.7000000000000028  0.2000000000000028  0.3590739999999997   F   F   F
  0.6000000000000014  0.3999999999999986  0.2886110000000031   F   F   F
  0.7000000000000028  0.5000000000000000  0.2886110000000031   F   F   F
  0.6000000000000014  0.5000000000000000  0.3590739999999997   F   F   F
  0.7000000000000028  0.3999999999999986  0.3590739999999997   F   F   F
  0.6000000000000014  0.6000000000000014  0.2886110000000031   F   F   F
  0.7000000000000028  0.7000000000000028  0.2886110000000031   F   F   F
  0.6000000000000014  0.7000000000000028  0.3590739999999997   F   F   F
  0.7000000000000028  0.6000000000000014  0.3590739999999997   F   F   F
  0.6000000000000014  0.7999999999999972  0.2886110000000031   F   F   F
  0.7000000000000028  0.8999999999999986  0.2886110000000031   F   F   F
  0.6000000000000014  0.8999999999999986  0.3590739999999997   F   F   F
  0.7000000000000028  0.7999999999999972  0.3590739999999997   F   F   F
  0.7999999999999972  0.0000000000000000  0.2886110000000031   F   F   F
  0.8999999999999986  0.1000000000000014  0.2886110000000031   F   F   F
  0.7999999999999972  0.1000000000000014  0.3590739999999997   F   F   F
  0.8999999999999986  0.0000000000000000  0.3590739999999997   F   F   F
  0.7999999999999972  0.2000000000000028  0.2886110000000031   F   F   F
  0.8999999999999986  0.2999999999999972  0.2886110000000031   F   F   F
  0.7999999999999972  0.2999999999999972  0.3590739999999997   F   F   F
  0.8999999999999986  0.2000000000000028  0.3590739999999997   F   F   F
  0.7999999999999972  0.3999999999999986  0.2886110000000031   F   F   F
  0.8999999999999986  0.5000000000000000  0.2886110000000031   F   F   F
  0.7999999999999972  0.5000000000000000  0.3590739999999997   F   F   F
  0.8999999999999986  0.3999999999999986  0.3590739999999997   F   F   F
  0.7999999999999972  0.6000000000000014  0.2886110000000031   F   F   F
  0.8999999999999986  0.7000000000000028  0.2886110000000031   F   F   F
  0.7999999999999972  0.7000000000000028  0.3590739999999997   F   F   F
  0.8999999999999986  0.6000000000000014  0.3590739999999997   F   F   F
  0.7999999999999972  0.7999999999999972  0.2886110000000031   F   F   F
  0.8999999999999986  0.8999999999999986  0.2886110000000031   F   F   F
  0.7999999999999972  0.8999999999999986  0.3590739999999997   F   F   F
  0.8999999999999986  0.7999999999999972  0.3590739999999997   F   F   F
  0.0000859195042293  0.9998312387064406  0.5024533387069638   T   T   T
  0.0997589810348601  0.0997795450660723  0.5023679518587280   T   T   T
  0.9998853034168603  0.1001483406537286  0.4303106481847634   T   T   T
  0.0999261762872091 -0.0000037946693622  0.4302342885786427   T   T   T
  0.0002285680974157  0.1999157138240906  0.5027152099999781   T   T   T
  0.0996546598685199  0.3001096290289544  0.5027574346014235   T   T   T
  0.9997916404835872  0.2999819489542265  0.4305202835644812   T   T   T
  0.0999338021131739  0.2002054201422583  0.4303726291056926   T   T   T
  0.9998638508454190  0.4002990711300403  0.5025766147453016   T   T   T
  0.0996541677132619  0.5004484900208706  0.5025012824186267   T   T   T
  0.0000205897339449  0.5000052511412525  0.4302746019064835   T   T   T
  0.1002998657315620  0.3999500163332939  0.4306229812179559   T   T   T
  0.0000257896849263  0.6003389219942813  0.5023947756868070   T   T   T
  0.0998967508401109  0.7003189431502607  0.5024168390412502   T   T   T
  0.0000089593623047  0.7000485301859585  0.4302394141292996   T   T   T
  0.1000590492456733  0.6000626615143149  0.4302513486382327   T   T   T
  0.0000111347687603  0.8000539710711811  0.5025657602856164   T   T   T
  0.1000554928701324  0.8999723517956181  0.5025620310036742   T   T   T
  0.0000309131197560  0.9000267545509207  0.4303248330305630   T   T   T
  0.0999143266448047  0.8000675513682812  0.4302656718159145   T   T   T
  0.1997294119900567  0.9998859230830890  0.5025988128273426   T   T   T
  0.2996015911332015  0.0995880167014033  0.5027735902936784   T   T   T
  0.1999699447706331  0.1000682397832261  0.4303942100939711   T   T   T
  0.2998531551218523  0.9999436740264671  0.4304382388611676   T   T   T
  0.1994156122257088  0.1996745478107480  0.5027306073644007   T   T   T
  0.2985393876841715  0.2990646602856644  0.5037809776981861   T   T   T
  0.2001540747418719  0.3004335324261929  0.4310711934753604   T   T   T
  0.2997675227282647  0.2002891401521271  0.4307524415354286   T   T   T
  0.1986671667099215  0.4006482732777646  0.5050348287828736   T   T   T
  0.2997606966327706  0.5013677606950179  0.5011837014030947   T   T   T
  0.1997762823486268  0.4997657263280343  0.4304312943535685   T   T   T
  0.2993150834918258  0.3995820497869403  0.4308735262486185   T   T   T
  0.1996449528267071  0.6006770789528784  0.5024263280836280   T   T   T
  0.2997139981133569  0.7004152729460568  0.5025137017248765   T   T   T
  0.1999056482082453  0.7001773209344946  0.4302064548389635   T   T   T
  0.2999239675201535  0.6003881561538826  0.4302954338625882   T   T   T
  0.1997966977277590  0.8000901742893860  0.5024504844594310   T   T   T
  0.2996574330007669  0.8999024364761968  0.5025969099831017   T   T   T
  0.1999328740033838  0.9000608444924798  0.4302849793487186   T   T   T
  0.2999672646930710  0.8001124566989977  0.4302797027074513   T   T   T
  0.3997186315436812  0.9993964241614955  0.5029289653567257   T   T   T
  0.4994674618526693  0.0996120991910697  0.5014933205144472   T   T   T
  0.3996129137595106  0.0999805165648808  0.4306238559640075   T   T   T
  0.4999231222207292  0.9999229173026811  0.4303482002022266   T   T   T
  0.3991878884530254  0.1995956174739625  0.5028733487594913   T   T   T
  0.5002610183323071  0.2995237038184305  0.5020284545957137   T   T   T
  0.3993502661554666  0.2996407754674721  0.4307361103399912   T   T   T
  0.4995174483743088  0.1998087150271508  0.4304453697569240   T   T   T
  0.4004725686609977  0.3998807946243334  0.5010561196764937   T   T   T
  0.5000681772073527  0.4998760183559150  0.5008845229914741   T   T   T
  0.3997351200032293  0.5003099922815848  0.4302494861669035   T   T   T
  0.5000057663772541  0.3997323504100271  0.4300069804808618   T   T   T
  0.3996313184528241  0.6010250231894775  0.5030618959024761   T   T   T
  0.4999007002146346  0.7005578255011033  0.5027274935757551   T   T   T
  0.3998728251254688  0.7001067024629791  0.4304336598985900   T   T   T
  0.4998340547442112  0.6003357726376042  0.4304959619102701   T   T   T
  0.3997937591154525  0.8003115016410794  0.5025612524561205   T   T   T
  0.4999028163756991  0.8999043918726027  0.5025579686171765   T   T   T
  0.3998972812373728  0.9000643043181498  0.4303384796465098   T   T   T
  0.4999691674050896  0.8000473873825806  0.4303326547707277   T   T   T
  0.6002782028376895  0.9996743810355766  0.5023459066784272   T   T   T
  0.7020832708309226  0.0980303696995212  0.5037278515900216   T   T   T
  0.6007334675280083  0.0998374780471609  0.4306995613990889   T   T   T
  0.7002704061679499  0.0002727123718316  0.4304814167277996   T   T   T
  0.5998443124842522  0.1995961880991425  0.5013573865754070   T   T   T
  0.6995048937514532  0.3006651476351617  0.5008935644726720   T   T   T
  0.5999366741382778  0.2996537553635691  0.4299922078816723   T   T   T
  0.7006757119381076  0.1992239257349566  0.4309853202581783   T   T   T
  0.5999048376676321  0.3999325426827415  0.5018198626360921   T   T   T
  0.7000367624417088  0.5001307022768614  0.5010018345120093   T   T   T
  0.5999697717014163  0.5003022029468727  0.4302028370214210   T   T   T
  0.7001252664780949  0.4000361779350052  0.4299360944659832   T   T   T
  0.5998127760099381  0.6006882735017847  0.5028818876757111   T   T   T
  0.7001022377332876  0.7003345997466430  0.5028191060262320   T   T   T
  0.5999959221190376  0.7000716336509419  0.4304487770008257   T   T   T
  0.6998921611061460  0.6003558415818658  0.4304586623320525   T   T   T
  0.6000699613269183  0.8002298169111297  0.5024933083510396   T   T   T
  0.7002391474359231  0.8994180062427111  0.5023853472550340   T   T   T
  0.6001135982261364  0.9000312231374290  0.4303150872202002   T   T   T
  0.7000738116250432  0.7999426885864083  0.4302241114654386   T   T   T
  0.8004188748868754  0.9994058230532349  0.5026288820700704   T   T   T
  0.9005562553971806  0.0998105872190315  0.5028606081293675   T   T   T
  0.7998650032899661  0.1004635126991191  0.4311313773192160   T   T   T
  0.8999388797465956  0.0001362667617906  0.4303645015904748   T   T   T
  0.8005402102703985  0.1994188899149128  0.5058615766688179   T   T   T
  0.9003504862905484  0.3000753382211098  0.5036553690593349   T   T   T
  0.8001978696953930  0.2992101995350724  0.4308222213949773   T   T   T
  0.8995049380548795  0.2000770205125536  0.4310167804070308   T   T   T
  0.8003905351981728  0.4007635292193106  0.5009737826290972   T   T   T
  0.9002413984635944  0.5004223657297595  0.5025265051768055   T   T   T
  0.8002768511370770  0.5002896000841104  0.4301008132444870   T   T   T
  0.9001464866170390  0.3998070540943934  0.4303578112329343   T   T   T
  0.8003184419275936  0.6003461208708673  0.5025053136951247   T   T   T
  0.9001372334365253  0.7001590439540923  0.5025876216721805   T   T   T
  0.8000566828680858  0.7000947123585562  0.4303696701015438   T   T   T
  0.9001025781208665  0.6001496828022661  0.4302818880943502   T   T   T
  0.8002559928632997  0.8000538758463226  0.5025108802754404   T   T   T
  0.9002413599283440  0.8997844786283008  0.5024739990984439   T   T   T
  0.8000501533924307  0.8999937088172415  0.4302534329787807   T   T   T
  0.9000747298115468  0.8000205983890143  0.4302474217878040   T   T   T
  0.0000000000000000  0.0000000000000000  0.3590739999999997   F   F   F
  0.1000000000000014  0.1000000000000014  0.3590739999999997   F   F   F
  0.0000000000000000  0.1000000000000014  0.2886110000000031   F   F   F
  0.1000000000000014  0.0000000000000000  0.2886110000000031   F   F   F
  0.0000000000000000  0.2000000000000028  0.3590739999999997   F   F   F
  0.1000000000000014  0.2999999999999972  0.3590739999999997   F   F   F
  0.0000000000000000  0.2999999999999972  0.2886110000000031   F   F   F
  0.1000000000000014  0.2000000000000028  0.2886110000000031   F   F   F
  0.0000000000000000  0.3999999999999986  0.3590739999999997   F   F   F
  0.1000000000000014  0.5000000000000000  0.3590739999999997   F   F   F
  0.0000000000000000  0.5000000000000000  0.2886110000000031   F   F   F
  0.1000000000000014  0.3999999999999986  0.2886110000000031   F   F   F
  0.0000000000000000  0.6000000000000014  0.3590739999999997   F   F   F
  0.1000000000000014  0.7000000000000028  0.3590739999999997   F   F   F
  0.0000000000000000  0.7000000000000028  0.2886110000000031   F   F   F
  0.1000000000000014  0.6000000000000014  0.2886110000000031   F   F   F
  0.0000000000000000  0.7999999999999972  0.3590739999999997   F   F   F
  0.1000000000000014  0.8999999999999986  0.3590739999999997   F   F   F
  0.0000000000000000  0.8999999999999986  0.2886110000000031   F   F   F
  0.1000000000000014  0.7999999999999972  0.2886110000000031   F   F   F
  0.2000000000000028  0.0000000000000000  0.3590739999999997   F   F   F
  0.2999999999999972  0.1000000000000014  0.3590739999999997   F   F   F
  0.2000000000000028  0.1000000000000014  0.2886110000000031   F   F   F
  0.2999999999999972  0.0000000000000000  0.2886110000000031   F   F   F
  0.2000000000000028  0.2000000000000028  0.3590739999999997   F   F   F
  0.2999999999999972  0.2999999999999972  0.3590739999999997   F   F   F
  0.2000000000000028  0.2999999999999972  0.2886110000000031   F   F   F
  0.2999999999999972  0.2000000000000028  0.2886110000000031   F   F   F
  0.2000000000000028  0.3999999999999986  0.3590739999999997   F   F   F
  0.2999999999999972  0.5000000000000000  0.3590739999999997   F   F   F
  0.2000000000000028  0.5000000000000000  0.2886110000000031   F   F   F
  0.2999999999999972  0.3999999999999986  0.2886110000000031   F   F   F
  0.2000000000000028  0.6000000000000014  0.3590739999999997   F   F   F
  0.2999999999999972  0.7000000000000028  0.3590739999999997   F   F   F
  0.2000000000000028  0.7000000000000028  0.2886110000000031   F   F   F
  0.2999999999999972  0.6000000000000014  0.2886110000000031   F   F   F
  0.2000000000000028  0.7999999999999972  0.3590739999999997   F   F   F
  0.2999999999999972  0.8999999999999986  0.3590739999999997   F   F   F
  0.2000000000000028  0.8999999999999986  0.2886110000000031   F   F   F
  0.2999999999999972  0.7999999999999972  0.2886110000000031   F   F   F
  0.3999999999999986  0.0000000000000000  0.3590739999999997   F   F   F
  0.5000000000000000  0.1000000000000014  0.3590739999999997   F   F   F
  0.3999999999999986  0.1000000000000014  0.2886110000000031   F   F   F
  0.5000000000000000  0.0000000000000000  0.2886110000000031   F   F   F
  0.3999999999999986  0.2000000000000028  0.3590739999999997   F   F   F
  0.5000000000000000  0.2999999999999972  0.3590739999999997   F   F   F
  0.3999999999999986  0.2999999999999972  0.2886110000000031   F   F   F
  0.5000000000000000  0.2000000000000028  0.2886110000000031   F   F   F
  0.3999999999999986  0.3999999999999986  0.3590739999999997   F   F   F
  0.5000000000000000  0.5000000000000000  0.3590739999999997   F   F   F
  0.3999999999999986  0.5000000000000000  0.2886110000000031   F   F   F
  0.5000000000000000  0.3999999999999986  0.2886110000000031   F   F   F
  0.3999999999999986  0.6000000000000014  0.3590739999999997   F   F   F
  0.5000000000000000  0.7000000000000028  0.3590739999999997   F   F   F
  0.3999999999999986  0.7000000000000028  0.2886110000000031   F   F   F
  0.5000000000000000  0.6000000000000014  0.2886110000000031   F   F   F
  0.3999999999999986  0.7999999999999972  0.3590739999999997   F   F   F
  0.5000000000000000  0.8999999999999986  0.3590739999999997   F   F   F
  0.3999999999999986  0.8999999999999986  0.2886110000000031   F   F   F
  0.5000000000000000  0.7999999999999972  0.2886110000000031   F   F   F
  0.6000000000000014  0.0000000000000000  0.3590739999999997   F   F   F
  0.7000000000000028  0.1000000000000014  0.3590739999999997   F   F   F
  0.6000000000000014  0.1000000000000014  0.2886110000000031   F   F   F
  0.7000000000000028  0.0000000000000000  0.2886110000000031   F   F   F
  0.6000000000000014  0.2000000000000028  0.3590739999999997   F   F   F
  0.7000000000000028  0.2999999999999972  0.3590739999999997   F   F   F
  0.6000000000000014  0.2999999999999972  0.2886110000000031   F   F   F
  0.7000000000000028  0.2000000000000028  0.2886110000000031   F   F   F
  0.6000000000000014  0.3999999999999986  0.3590739999999997   F   F   F
  0.7000000000000028  0.5000000000000000  0.3590739999999997   F   F   F
  0.6000000000000014  0.5000000000000000  0.2886110000000031   F   F   F
  0.7000000000000028  0.3999999999999986  0.2886110000000031   F   F   F
  0.6000000000000014  0.6000000000000014  0.3590739999999997   F   F   F
  0.7000000000000028  0.7000000000000028  0.3590739999999997   F   F   F
  0.6000000000000014  0.7000000000000028  0.2886110000000031   F   F   F
  0.7000000000000028  0.6000000000000014  0.2886110000000031   F   F   F
  0.6000000000000014  0.7999999999999972  0.3590739999999997   F   F   F
  0.7000000000000028  0.8999999999999986  0.3590739999999997   F   F   F
  0.6000000000000014  0.8999999999999986  0.2886110000000031   F   F   F
  0.7000000000000028  0.7999999999999972  0.2886110000000031   F   F   F
  0.7999999999999972  0.0000000000000000  0.3590739999999997   F   F   F
  0.8999999999999986  0.1000000000000014  0.3590739999999997   F   F   F
  0.7999999999999972  0.1000000000000014  0.2886110000000031   F   F   F
  0.8999999999999986  0.0000000000000000  0.2886110000000031   F   F   F
  0.7999999999999972  0.2000000000000028  0.3590739999999997   F   F   F
  0.8999999999999986  0.2999999999999972  0.3590739999999997   F   F   F