Ag Mg  O                                
   1.00000000000000     
    21.1388521970183838    0.0000000000000000    0.0000000000000000
     0.0000000000000000   21.1388521970183838    0.0000000000000000
     0.0000000000000000    0.0000000000000000   22.1138852197018352
   Ag
     4
Selective dynamics
Direct
  0.4042095873354086  0.5958381519818445  0.6278723564505455   T   T   T
  0.3169043014088331  0.6831422709970099  0.6133681872227470   T   T   T
  0.5831417979344309  0.4169047744714049  0.6133681872227470   T   T   T
  0.4958376789192727  0.5042095873354100  0.6278723564505455   T   T   T
 
  0.00000000E+00  0.00000000E+00  0.00000000E+00
  0.00000000E+00  0.00000000E+00  0.00000000E+00
  0.00000000E+00  0.00000000E+00  0.00000000E+00
  0.00000000E+00  0.00000000E+00  0.00000000E+00
