Ag 
 1.0000000000000000
    21.1388521970183838    0.0000000000000000    0.0000000000000000
     0.0000000000000000   21.1388521970183838    0.0000000000000000
     0.0000000000000000    0.0000000000000000   22.1138852197018352
  Ag
   2
Direct
  0.5432641498244803  0.5567358143144718  0.6233714736639531
  0.4567358500815503  0.6432641140574018  0.6233714736639531
