Ag                                      
   1.0000000000000000     
    20.0000000000000000    0.0000000000000000    0.0000000000000000
     0.0000000000000000   20.0000000000000000    0.0000000000000000
     0.0000000000000000    0.0000000000000000   20.0000000000000000
   Ag
     6
Direct
  0.5262950387575686  0.5282146720140147  0.5574873667651320
  0.3988463974843603  0.5760623613889427  0.5572653285936101
  0.4645085354372948  0.5429368755456236  0.4427399618335759
  0.4197585350670941  0.4387892176708307  0.5284978360032246
  0.5360494004844144  0.4218565039624581  0.4637958673903224
  0.6006334473392620  0.5464717922131322  0.4448744084791345

  0.00000000E+00  0.00000000E+00  0.00000000E+00
  0.00000000E+00  0.00000000E+00  0.00000000E+00
  0.00000000E+00  0.00000000E+00  0.00000000E+00
  0.00000000E+00  0.00000000E+00  0.00000000E+00
  0.00000000E+00  0.00000000E+00  0.00000000E+00
  0.00000000E+00  0.00000000E+00  0.00000000E+00
