cu4                                     
   1.00000000000000     
    20.0000000000000000    0.0000000000000000    0.0000000000000000
     0.0000000000000000   20.0000000000000000    0.0000000000000000
     0.0000000000000000    0.0000000000000000   20.0000000000000000
   Cu
     4
Direct
  0.0230856191970616  0.0092726757699921  0.0591712808139988
  0.9658169426767387  0.9833331704951149  0.9463785763634078
  0.9432987448254906  0.9330880443735481  0.0641620990237826
  0.9063683433007128  0.0465518093613468  0.0146369437988056
 
  0.00000000E+00  0.00000000E+00  0.00000000E+00
  0.00000000E+00  0.00000000E+00  0.00000000E+00
  0.00000000E+00  0.00000000E+00  0.00000000E+00
  0.00000000E+00  0.00000000E+00  0.00000000E+00
