Cu 
 1.0000000000000000
    21.1388521970183838    0.0000000000000000    0.0000000000000000
     0.0000000000000000   21.1388521970183838    0.0000000000000000
     0.0000000000000000    0.0000000000000000   22.1138852197018352
  Cu
   2
Direct
  0.5375310888667090  0.5624688752722432  0.6148486368596618
  0.4624689110393218  0.6375310530996304  0.6148486368596618
