SYSTEM=MgO-rocksalt
ISMEAR=0
SIGMA=0.05
EDIFF=1E-6
ALGO=ALL
ISTART=0
IBRION=-1
NSW=0
ISYM=2
DIPOL=0.5 0.5 0.5
IDIPOL = 3
LDIPOL = .TRUE.

METAGGA  = SCAN
LUSE_VDW = .TRUE.
BPARAM = 15.7    # the default value is 6.3
CPARAM = 0.0093  # default but can be overwritten by this tag

ENCUT=520
PREC=Accurate  #default (Normal) usually safe, structures/energies change little with Accurate
LASPH=.TRUE.
LREAL=Auto
ISPIN=1
NELM=200
NELMIN=8
NCORE=4
KPAR=2
LWAVE=.FALSE.
LCHARG=.FALSE.
