ag4                                     
   1.0000000000000000     
    20.0000000000000000    0.0000000000000000    0.0000000000000000
     0.0000000000000000   20.0000000000000000    0.0000000000000000
     0.0000000000000000    0.0000000000000000   20.0000000000000000
   Ag
     4
Direct
  0.9722744102860015  0.1093944959650703  0.9998971325467506
  0.9583296052252853  0.8565801985771380  0.9519658652721192
  0.9924767297750483  0.9741831234571270  0.9913159238907352
  0.0769192547136648  0.0598421820006648  0.0568210782903951

  0.00000000E+00  0.00000000E+00  0.00000000E+00
  0.00000000E+00  0.00000000E+00  0.00000000E+00
  0.00000000E+00  0.00000000E+00  0.00000000E+00
  0.00000000E+00  0.00000000E+00  0.00000000E+00
