Mg  O                                   
   1.0000000000000000     
    21.1388521970183838    0.0000000000000000    0.0000000000000000
     0.0000000000000000   21.1388521970183838    0.0000000000000000
     0.0000000000000000    0.0000000000000000   30.0000000000000000
   Au   Mg   O 
    20   200   200
Selective dynamics
Direct
  0.4976534300701583  0.4333019184048534  0.6113989055962101   T   T   T
  0.3261910350583856  0.3139292308515084  0.5787384561101451   T   T   T
  0.5575461385106704  0.5445531290212247  0.5920903954261387   T   T   T
  0.5674273974895011  0.3236734130424924  0.6193425004191236   T   T   T
  0.4487370268658923  0.0960419496832448  0.6035883484886502   T   T   T
  0.6372577749846587  0.2139954249468597  0.6179854992789038   T   T   T
  0.5097512584131377  0.2099791653384744  0.6254089331032436   T   T   T
  0.4284835609480988  0.5417294301256340  0.5923080654072369   T   T   T
  0.6854776359699963  0.5489227110986500  0.5966501482839799   T   T   T
  0.5740934718406814  0.0994019147246378  0.6111213493603966   T   T   T
  0.3699835437786705  0.4306513598000296  0.6067705279626121   T   T   T
  0.8195337501286545  0.3349763117152608  0.5920350886867617   T   T   T
  0.4391484955463975  0.3195884813057415  0.6205537497583729   T   T   T
  0.2506553332785825  0.4166128043864873  0.5811646328878693   T   T   T
  0.6946567065275614  0.3279597285132203  0.6094468841805664   T   T   T
  0.6869341381937139  0.1121641337002995  0.5751674441763623   T   T   T
  0.6257400936279368  0.4357823967145807  0.6068002852435876   T   T   T
  0.7558772390446779  0.4440865021557207  0.5960686969952131   T   T   T
  0.4032531952273290  0.2100909332305040  0.5771511131217322   T   T   T
  0.7587922016301216  0.2206182139703558  0.5838574652438898   T   T   T
  0.0000721108754147  0.9997415140326874  0.4296881144766724   T   T   T
  0.0998789392140677  0.0997773404000850  0.4297176974599726   T   T   T
  0.0002044865733831  0.0994447823735228  0.4997345072892314   T   T   T
  0.0998231589798548  0.9994088180341972  0.4996442890009015   T   T   T
 -0.0000139449913436  0.2000236654473347  0.4298102773811042   T   T   T
  0.0996515780390875  0.3001266438516924  0.4298877324474944   T   T   T
  0.0000483982019993  0.3003126518433401  0.4999880849340418   T   T   T
  0.0994332616963413  0.1995280033190114  0.4998351070453184   T   T   T
  0.9996737269836211  0.4002617123043409  0.4297951418875545   T   T   T
  0.0998235085596636  0.5003136453237118  0.4298255982740242   T   T   T
  0.9996290915074598  0.5006874926040922  0.4997764533518305   T   T   T
  0.0984374225662047  0.4007796643797607  0.5000920647113775   T   T   T
  0.9998698068534703  0.6001342704141689  0.4297310347010132   T   T   T
  0.0999524506799716  0.7000580533270089  0.4297117685756141   T   T   T
  0.9999174976262488  0.7000563948714276  0.4996517542646217   T   T   T
  0.0997182095651344  0.6005276746572249  0.4997373236409070   T   T   T
 -0.0000089330234944  0.7998467447083010  0.4296786459786610   T   T   T
  0.0999729408403844  0.8997874212453115  0.4296745778127261   T   T   T
  0.0001255280858947  0.8994955317561991  0.4996035179090664   T   T   T
  0.0999284845294599  0.7998261869601171  0.4996148608535718   T   T   T
  0.1998912344013004  0.9996995711656044  0.4297087587635238   T   T   T
  0.2999185215708165  0.0994424434617368  0.4298034534954556   T   T   T
  0.1992381969402526  0.0990216110480151  0.4997943057254902   T   T   T
  0.2995325886762414  0.9992303903629601  0.4998394045855162   T   T   T
  0.1994848157546389  0.1997851548085034  0.4297284788516221   T   T   T
  0.2999642997759665  0.2999663031267609  0.4292485163448765   T   T   T
  0.1980285165992185  0.2994648496891033  0.5003388585275433   T   T   T
  0.2973331796797214  0.1979581055779922  0.4995939650820952   T   T   T
  0.1998659580769103  0.4003975702956980  0.4294055155444385   T   T   T
  0.3003371774945479  0.5007423962859010  0.4295793430600652   T   T   T
  0.1997940725272809  0.5018543074559932  0.4998470818994140   T   T   T
  0.3021324418440964  0.4023872354113651  0.4992866881119598   T   T   T
  0.2000019742847977  0.6003551744260059  0.4297321203939619   T   T   T
  0.3000897725238867  0.7000889184862256  0.4297522174880422   T   T   T
  0.1999241902660155  0.7002475535319946  0.4996895960969399   T   T   T
  0.3000238628671049  0.6006324137848377  0.4998791945396371   T   T   T
  0.1999711455758409  0.7999228172812716  0.4296945735346668   T   T   T
  0.2999667914960916  0.8997952895534943  0.4297440499734562   T   T   T
  0.1997987802846492  0.8995989299017793  0.4996406355391527   T   T   T
  0.2998672166120614  0.7999346884729625  0.4996819088514495   T   T   T
  0.4000055825384053  0.9996509654687911  0.4297608913959666   T   T   T
  0.4998233484347835  0.0997890754621786  0.4297271878933640   T   T   T
  0.4000165573871308  0.0973638303055051  0.5008252965405007   T   T   T
  0.4999807689248709  0.9993254689784947  0.5002707995550401   T   T   T
  0.3999672854956258  0.1996737945769531  0.4289599547748189   T   T   T
  0.5007062357304995  0.3002262119243339  0.4297351003743492   T   T   T
  0.4025964979201669  0.3023065098235376  0.4994764522162561   T   T   T
  0.5024927014906585  0.1997816317622125  0.5003159384887347   T   T   T
  0.4008426724286078  0.4007491905217714  0.4294787908750543   T   T   T
  0.5002654015159596  0.5001237600113294  0.4296904079381248   T   T   T
  0.4005730287821587  0.5003486440462324  0.5011868433899409   T   T   T
  0.5008427110903155  0.4007196322248968  0.5009543199950014   T   T   T
  0.4002786794797950  0.6000170117021886  0.4297083914643544   T   T   T
  0.5000635033994466  0.6998801778277577  0.4298860837485239   T   T   T
  0.4001205329888501  0.7005505367736661  0.4998824836229446   T   T   T
  0.5000773174545465  0.6001205030283137  0.5005484109443085   T   T   T
  0.4000469749197639  0.7999337121627759  0.4297439124585204   T   T   T
  0.5000058654644040  0.8998770827418946  0.4297933189284999   T   T   T
  0.3999038886026514  0.8995232516422337  0.4998004528081271   T   T   T
  0.5000213078403857  0.7999041434935331  0.4997775937028523   T   T   T
  0.5999356060330877  0.9998624382996171  0.4298503839423612   T   T   T
  0.7001006308406812  0.0997033704688618  0.4290244672406616   T   T   T
  0.5975526046315768  0.0991876119663419  0.5008758333661413   T   T   T
  0.7003122421140310  0.9972949120898711  0.4996834319043126   T   T   T
  0.6000548673956526  0.2000315317715430  0.4297109325312691   T   T   T
  0.6998174541492258  0.3008175592674063  0.4295620602148430   T   T   T
  0.6001095264876380  0.3008017392699551  0.5008067209780146   T   T   T
  0.6986118628147446  0.2024923465315640  0.4995212554811115   T   T   T
  0.6001190010943857  0.4003136478200081  0.4298179882762435   T   T   T
  0.6999038606837942  0.5001451482243775  0.4295473062134602   T   T   T
  0.6002806482837770  0.5000205333452028  0.5007512354139354   T   T   T
  0.6998837054690307  0.4006839226213397  0.5006373961454367   T   T   T
  0.5999842049358599  0.5998807442006676  0.4297236417555041   T   T   T
  0.6999437741623002  0.6997714920850480  0.4298276020810735   T   T   T
  0.5999950808802961  0.7003019186515534  0.4999221894534191   T   T   T
  0.7001565049272199  0.6000724162674683  0.5004964993565814   T   T   T
  0.5999849638490089  0.7998224541644675  0.4297626837179533   T   T   T
  0.7000356125781827  0.8994961370619686  0.4296320776155998   T   T   T
  0.5998442232004783  0.8994361588313163  0.4997846608475762   T   T   T
  0.7001038590961135  0.7996714767178178  0.4997227826416608   T   T   T
  0.8002425656391464  0.9995578833145573  0.4297682336283369   T   T   T
  0.9003702459717620  0.0998399590761604  0.4297318553187393   T   T   T
  0.8026133963386632  0.0985245634440824  0.4998335750739277   T   T   T
  0.9006208807143034  0.9990667251342799  0.4997252543728771   T   T   T
  0.8000937316933663  0.2001491987564731  0.4294681586053901   T   T   T
  0.8998065153091268  0.3003193856419200  0.4297897641114573   T   T   T
  0.7996640046542483  0.3015097894631157  0.5003616415340150   T   T   T
  0.9011979700768288  0.2000120514853476  0.5002265782141739   T   T   T
  0.7997734560047108  0.4005662004302490  0.4294828432482083   T   T   T
  0.8997108992132087  0.5002322739620377  0.4298052344152425   T   T   T
  0.7997574787823895  0.5005818067802880  0.5004258865971464   T   T   T
  0.8998580161922317  0.4009381418894742  0.4999855091469750   T   T   T
  0.7998025202366577  0.5999608588743189  0.4297918249750957   T   T   T
  0.8999280909454157  0.6998984928877748  0.4297372808780371   T   T   T
  0.7999889246000238  0.6999322648769153  0.4997787591259020   T   T   T
  0.8998618013923644  0.6002182836617339  0.4997885527674118   T   T   T
  0.8000283991144796  0.7997219364292245  0.4297250455121853   T   T   T
  0.9000999630927622  0.8996900234036375  0.4296787944601687   T   T   T
  0.8004915318762074  0.8992325607695496  0.4996961569718010   T   T   T
  0.9001328313445327  0.7996590963445632  0.4996483045664459   T   T   T
  0.0000000000000000  0.0000000000000000  0.2886110000000031   F   F   F
  0.1000000000000014  0.1000000000000014  0.2886110000000031   F   F   F
  0.0000000000000000  0.1000000000000014  0.3590739999999997   F   F   F
  0.1000000000000014  0.0000000000000000  0.3590739999999997   F   F   F
  0.0000000000000000  0.2000000000000028  0.2886110000000031   F   F   F
  0.1000000000000014  0.2999999999999972  0.2886110000000031   F   F   F
  0.0000000000000000  0.2999999999999972  0.3590739999999997   F   F   F
  0.1000000000000014  0.2000000000000028  0.3590739999999997   F   F   F
  0.0000000000000000  0.3999999999999986  0.2886110000000031   F   F   F
  0.1000000000000014  0.5000000000000000  0.2886110000000031   F   F   F
  0.0000000000000000  0.5000000000000000  0.3590739999999997   F   F   F
  0.1000000000000014  0.3999999999999986  0.3590739999999997   F   F   F
  0.0000000000000000  0.6000000000000014  0.2886110000000031   F   F   F
  0.1000000000000014  0.7000000000000028  0.2886110000000031   F   F   F
  0.0000000000000000  0.7000000000000028  0.3590739999999997   F   F   F
  0.1000000000000014  0.6000000000000014  0.3590739999999997   F   F   F
  0.0000000000000000  0.7999999999999972  0.2886110000000031   F   F   F
  0.1000000000000014  0.8999999999999986  0.2886110000000031   F   F   F
  0.0000000000000000  0.8999999999999986  0.3590739999999997   F   F   F
  0.1000000000000014  0.7999999999999972  0.3590739999999997   F   F   F
  0.2000000000000028  0.0000000000000000  0.2886110000000031   F   F   F
  0.2999999999999972  0.1000000000000014  0.2886110000000031   F   F   F
  0.2000000000000028  0.1000000000000014  0.3590739999999997   F   F   F
  0.2999999999999972  0.0000000000000000  0.3590739999999997   F   F   F
  0.2000000000000028  0.2000000000000028  0.2886110000000031   F   F   F
  0.2999999999999972  0.2999999999999972  0.2886110000000031   F   F   F
  0.2000000000000028  0.2999999999999972  0.3590739999999997   F   F   F
  0.2999999999999972  0.2000000000000028  0.3590739999999997   F   F   F
  0.2000000000000028  0.3999999999999986  0.2886110000000031   F   F   F
  0.2999999999999972  0.5000000000000000  0.2886110000000031   F   F   F
  0.2000000000000028  0.5000000000000000  0.3590739999999997   F   F   F
  0.2999999999999972  0.3999999999999986  0.3590739999999997   F   F   F
  0.2000000000000028  0.6000000000000014  0.2886110000000031   F   F   F
  0.2999999999999972  0.7000000000000028  0.2886110000000031   F   F   F
  0.2000000000000028  0.7000000000000028  0.3590739999999997   F   F   F
  0.2999999999999972  0.6000000000000014  0.3590739999999997   F   F   F
  0.2000000000000028  0.7999999999999972  0.2886110000000031   F   F   F
  0.2999999999999972  0.8999999999999986  0.2886110000000031   F   F   F
  0.2000000000000028  0.8999999999999986  0.3590739999999997   F   F   F
  0.2999999999999972  0.7999999999999972  0.3590739999999997   F   F   F
  0.3999999999999986  0.0000000000000000  0.2886110000000031   F   F   F
  0.5000000000000000  0.1000000000000014  0.2886110000000031   F   F   F
  0.3999999999999986  0.1000000000000014  0.3590739999999997   F   F   F
  0.5000000000000000  0.0000000000000000  0.3590739999999997   F   F   F
  0.3999999999999986  0.2000000000000028  0.2886110000000031   F   F   F
  0.5000000000000000  0.2999999999999972  0.2886110000000031   F   F   F
  0.3999999999999986  0.2999999999999972  0.3590739999999997   F   F   F
  0.5000000000000000  0.2000000000000028  0.3590739999999997   F   F   F
  0.3999999999999986  0.3999999999999986  0.2886110000000031   F   F   F
  0.5000000000000000  0.5000000000000000  0.2886110000000031   F   F   F
  0.3999999999999986  0.5000000000000000  0.3590739999999997   F   F   F
  0.5000000000000000  0.3999999999999986  0.3590739999999997   F   F   F
  0.3999999999999986  0.6000000000000014  0.2886110000000031   F   F   F
  0.5000000000000000  0.7000000000000028  0.2886110000000031   F   F   F
  0.3999999999999986  0.7000000000000028  0.3590739999999997   F   F   F
  0.5000000000000000  0.6000000000000014  0.3590739999999997   F   F   F
  0.3999999999999986  0.7999999999999972  0.2886110000000031   F   F   F
  0.5000000000000000  0.8999999999999986  0.2886110000000031   F   F   F
  0.3999999999999986  0.8999999999999986  0.3590739999999997   F   F   F
  0.5000000000000000  0.7999999999999972  0.3590739999999997   F   F   F
  0.6000000000000014  0.0000000000000000  0.2886110000000031   F   F   F
  0.7000000000000028  0.1000000000000014  0.2886110000000031   F   F   F
  0.6000000000000014  0.1000000000000014  0.3590739999999997   F   F   F
  0.7000000000000028  0.0000000000000000  0.3590739999999997   F   F   F
  0.6000000000000014  0.2000000000000028  0.2886110000000031   F   F   F
  0.7000000000000028  0.2999999999999972  0.2886110000000031   F   F   F
  0.6000000000000014  0.2999999999999972  0.3590739999999997   F   F   F
  0.7000000000000028  0.2000000000000028  0.3590739999999997   F   F   F
  0.6000000000000014  0.3999999999999986  0.2886110000000031   F   F   F
  0.7000000000000028  0.5000000000000000  0.2886110000000031   F   F   F
  0.6000000000000014  0.5000000000000000  0.3590739999999997   F   F   F
  0.7000000000000028  0.3999999999999986  0.3590739999999997   F   F   F
  0.6000000000000014  0.6000000000000014  0.2886110000000031   F   F   F
  0.7000000000000028  0.7000000000000028  0.2886110000000031   F   F   F
  0.6000000000000014  0.7000000000000028  0.3590739999999997   F   F   F
  0.7000000000000028  0.6000000000000014  0.3590739999999997   F   F   F
  0.6000000000000014  0.7999999999999972  0.2886110000000031   F   F   F
  0.7000000000000028  0.8999999999999986  0.2886110000000031   F   F   F
  0.6000000000000014  0.8999999999999986  0.3590739999999997   F   F   F
  0.7000000000000028  0.7999999999999972  0.3590739999999997   F   F   F
  0.7999999999999972  0.0000000000000000  0.2886110000000031   F   F   F
  0.8999999999999986  0.1000000000000014  0.2886110000000031   F   F   F
  0.7999999999999972  0.1000000000000014  0.3590739999999997   F   F   F
  0.8999999999999986  0.0000000000000000  0.3590739999999997   F   F   F
  0.7999999999999972  0.2000000000000028  0.2886110000000031   F   F   F
  0.8999999999999986  0.2999999999999972  0.2886110000000031   F   F   F
  0.7999999999999972  0.2999999999999972  0.3590739999999997   F   F   F
  0.8999999999999986  0.2000000000000028  0.3590739999999997   F   F   F
  0.7999999999999972  0.3999999999999986  0.2886110000000031   F   F   F
  0.8999999999999986  0.5000000000000000  0.2886110000000031   F   F   F
  0.7999999999999972  0.5000000000000000  0.3590739999999997   F   F   F
  0.8999999999999986  0.3999999999999986  0.3590739999999997   F   F   F
  0.7999999999999972  0.6000000000000014  0.2886110000000031   F   F   F
  0.8999999999999986  0.7000000000000028  0.2886110000000031   F   F   F
  0.7999999999999972  0.7000000000000028  0.3590739999999997   F   F   F
  0.8999999999999986  0.6000000000000014  0.3590739999999997   F   F   F
  0.7999999999999972  0.7999999999999972  0.2886110000000031   F   F   F
  0.8999999999999986  0.8999999999999986  0.2886110000000031   F   F   F
  0.7999999999999972  0.8999999999999986  0.3590739999999997   F   F   F
  0.8999999999999986  0.7999999999999972  0.3590739999999997   F   F   F
  0.0001167325403542  0.9996949458508271  0.5008046464163888   T   T   T
  0.0997808656329886  0.0997074928735787  0.5008570228528185   T   T   T
  0.0000395403446941  0.1000571701103006  0.4295270051398236   T   T   T
  0.0999620833938100 -0.0000176722002342  0.4294779773817615   T   T   T
  0.0001682441433448  0.1999176496986444  0.5010153712134753   T   T   T
  0.0996374228849938  0.3001328300310281  0.5010983689351195   T   T   T
  0.9998987604423833  0.2999699874777319  0.4297229452395670   T   T   T
  0.0999472292619943  0.2001308914181045  0.4295902259362663   T   T   T
  0.9998285305291208  0.4001995438841977  0.5009901092759168   T   T   T
  0.0998779156106885  0.5002918814553916  0.5009693722869836   T   T   T
  0.0001290555915300  0.4999766217977201  0.4295395438070151   T   T   T
  0.1003160171570544  0.3999433842948464  0.4298660425111150   T   T   T
  0.0000677659620379  0.6002509310657254  0.5008418691923471   T   T   T
  0.0999310363643806  0.7001451209727750  0.5008098947626854   T   T   T
  0.0000685083681424  0.7000293738725060  0.4294595234491166   T   T   T
  0.1000361008428966  0.6000104299118958  0.4295119198076521   T   T   T
  0.0000913171098300  0.7999174355541385  0.5007765208513264   T   T   T
  0.0999119520500574  0.8998103629013114  0.5007715673167674   T   T   T
  0.0000349366310035  0.8999690643929746  0.4294472606035175   T   T   T
  0.0999700842198458  0.8000115861647148  0.4294446436241978   T   T   T
  0.1996831079284688  0.9997015772474115  0.5008427004947519   T   T   T
  0.2995052213442234  0.0994887828648506  0.5008791663410999   T   T   T
  0.1998980323381816  0.1000292366712023  0.4295706858706552   T   T   T
  0.2999059054100841  0.9999290591846799  0.4295570029203672   T   T   T
  0.1991848212474591  0.1996967410473997  0.5009330562066113   T   T   T
  0.2984111470208594  0.2985794871752349  0.5011928950493326   T   T   T
  0.2000964332460297  0.3003914364381235  0.4301473380748691   T   T   T
  0.2998505694961613  0.2001159610536811  0.4298405539358701   T   T   T
  0.1986676138188737  0.4003263725983354  0.5030013508350684   T   T   T
  0.2996872711070326  0.5011412109564933  0.4994290295566102   T   T   T
  0.1998300323847243  0.4996760198607669  0.4296797909270722   T   T   T
  0.2994584358388502  0.3994924046638716  0.4298721071318040   T   T   T
  0.1997872649222329  0.6005010176416835  0.5008204417310232   T   T   T
  0.2998368632128577  0.7002780820922095  0.5008474326633577   T   T   T
  0.1999148252631206  0.7000914236443350  0.4294727610358114   T   T   T
  0.2999010145593219  0.6003705555025034  0.4294154518159533   T   T   T
  0.1998240642954124  0.8000126776796225  0.5007879277535053   T   T   T
  0.2997189692445662  0.8998546983255037  0.5008427550110892   T   T   T
  0.1999173027997340  0.8999912192396713  0.4294689365762507   T   T   T
  0.2999260632931651  0.8000632635788925  0.4294867264726356   T   T   T
  0.3997334709780817  0.9992501822246405  0.5008958989779053   T   T   T
  0.4993882961675377  0.1000101177372962  0.4995724202943017   T   T   T
  0.3995670359400447  0.1002289097095935  0.4298281234344881   T   T   T
  0.4998852290408115  0.9999546342242509  0.4295601636790182   T   T   T
  0.3980346534717550  0.1991061189355287  0.5011957919500933   T   T   T
  0.5002568122467730  0.2992505777746672  0.5002562233297602   T   T   T
  0.3994610409557413  0.2993174271390732  0.4298805816219157   T   T   T
  0.4993145988531267  0.1998485921969474  0.4297465764540568   T   T   T
  0.4004735205084043  0.4000457199062720  0.4991084309324612   T   T   T
  0.5002477764747684  0.4999061047342780  0.4990789612206358   T   T   T
  0.3997875944866224  0.5002535451402890  0.4293913382337396   T   T   T
  0.5000644962288613  0.3996092269872304  0.4293013331502719   T   T   T
  0.3997839932545107  0.6009280072788581  0.5009732613018927   T   T   T
  0.4999253484938049  0.7004123403395724  0.5009144036629432   T   T   T
  0.3999292979890181  0.7001381479115235  0.4295653288996370   T   T   T
  0.4998635088917935  0.6003183395660853  0.4295738208697979   T   T   T
  0.3998472969280059  0.8001821565802704  0.5008758189366189   T   T   T
  0.4999999184161484  0.8999296214776571  0.5008799725466757   T   T   T
  0.3999168941070279  0.9000060021242189  0.4295225950122171   T   T   T
  0.4999710280466549  0.8001319258460393  0.4295329696952929   T   T   T
  0.6003450902227503  0.9997690356374517  0.5005739933742214   T   T   T
  0.7027074783473573  0.0980038735102501  0.5008458678304346   T   T   T
  0.6005776496951352  0.0998719448970651  0.4298466230306023   T   T   T
  0.7002963615906275  0.0001383024898446  0.4296645025442626   T   T   T
  0.6004409361539035  0.1994897778757867  0.4998208301701834   T   T   T
  0.6998188272078731  0.3006442999237298  0.4993322353322574   T   T   T
  0.6000461097129026  0.2996038336661268  0.4293483880994059   T   T   T
  0.7006037530838680  0.1993227080133745  0.4298655038741415   T   T   T
  0.6000552304250044  0.3998648906444538  0.5001193598170088   T   T   T
  0.7000262648822875  0.5001195596956091  0.4989692322547835   T   T   T
  0.5999901801818760  0.5002222882160173  0.4293218627876127   T   T   T
  0.7000913722468562  0.4000102327714845  0.4291196198190367   T   T   T
  0.5998690314204110  0.6008189534339328  0.5006459572852905   T   T   T
  0.7000805131038236  0.7003002769224550  0.5009218143123936   T   T   T
  0.5999671935910300  0.7001638522777620  0.4295583739713638   T   T   T
  0.6999509823688942  0.6003632085562006  0.4295167411493885   T   T   T
  0.6000505463535067  0.8001430974069120  0.5008614315432153   T   T   T
  0.7002370029410674  0.8994645819938644  0.5007388875158111   T   T   T
  0.6001111811899417  0.9000462480784917  0.4295177682440476   T   T   T
  0.7000720761046400  0.7999884446253150  0.4294861818416290   T   T   T
  0.8005391893327773  0.9993988873924808  0.5008776323768591   T   T   T
  0.9006752433882041  0.0997196255555152  0.5009485719484484   T   T   T
  0.8001172179328810  0.1001427037689571  0.4298718207111734   T   T   T
  0.9000937500365840  0.0000052200698231  0.4295233714310723   T   T   T
  0.8009069953663003  0.1991201658573434  0.5022257914669721   T   T   T
  0.9003423871523245  0.3000089058048397  0.5016088778622269   T   T   T
  0.8003008618558497  0.2994238399089948  0.4297542069432445   T   T   T
  0.8998409177639929  0.2000214284853021  0.4299443586459017   T   T   T
  0.8005332448963355  0.4006856333250831  0.4990313336850858   T   T   T
  0.9002509419362213  0.5003558378954233  0.5007775929188453   T   T   T
  0.8003125751601613  0.5003329315678723  0.4292759621358267   T   T   T
  0.9002739144417919  0.3998350785604911  0.4294981091605813   T   T   T
  0.8002610472627313  0.6003755603008483  0.5007209018532409   T   T   T
  0.9001618725053925  0.7001155770116141  0.5008410377291245   T   T   T
  0.8000950974729858  0.7000968219200591  0.4295042296157819   T   T   T
  0.9001706172657296  0.6001306107177752  0.4294917789353540   T   T   T
  0.8002412797070958  0.7999478874487880  0.5008292317000846   T   T   T
  0.9003053195787886  0.8996990296481471  0.5007914760436323   T   T   T
  0.8001040661734690  0.8999436719231698  0.4294904302975340   T   T   T
  0.9000911209120713  0.7999872409944994  0.4294615828357776   T   T   T
  0.0000000000000000  0.0000000000000000  0.3590739999999997   F   F   F
  0.1000000000000014  0.1000000000000014  0.3590739999999997   F   F   F
  0.0000000000000000  0.1000000000000014  0.2886110000000031   F   F   F
  0.1000000000000014  0.0000000000000000  0.2886110000000031   F   F   F
  0.0000000000000000  0.2000000000000028  0.3590739999999997   F   F   F
  0.1000000000000014  0.2999999999999972  0.3590739999999997   F   F   F
  0.0000000000000000  0.2999999999999972  0.2886110000000031   F   F   F
  0.1000000000000014  0.2000000000000028  0.2886110000000031   F   F   F
  0.0000000000000000  0.3999999999999986  0.3590739999999997   F   F   F
  0.1000000000000014  0.5000000000000000  0.3590739999999997   F   F   F
  0.0000000000000000  0.5000000000000000  0.2886110000000031   F   F   F
  0.1000000000000014  0.3999999999999986  0.2886110000000031   F   F   F
  0.0000000000000000  0.6000000000000014  0.3590739999999997   F   F   F
  0.1000000000000014  0.7000000000000028  0.3590739999999997   F   F   F
  0.0000000000000000  0.7000000000000028  0.2886110000000031   F   F   F
  0.1000000000000014  0.6000000000000014  0.2886110000000031   F   F   F
  0.0000000000000000  0.7999999999999972  0.3590739999999997   F   F   F
  0.1000000000000014  0.8999999999999986  0.3590739999999997   F   F   F
  0.0000000000000000  0.8999999999999986  0.2886110000000031   F   F   F
  0.1000000000000014  0.7999999999999972  0.2886110000000031   F   F   F
  0.2000000000000028  0.0000000000000000  0.3590739999999997   F   F   F
  0.2999999999999972  0.1000000000000014  0.3590739999999997   F   F   F
  0.2000000000000028  0.1000000000000014  0.2886110000000031   F   F   F
  0.2999999999999972  0.0000000000000000  0.2886110000000031   F   F   F
  0.2000000000000028  0.2000000000000028  0.3590739999999997   F   F   F
  0.2999999999999972  0.2999999999999972  0.3590739999999997   F   F   F
  0.2000000000000028  0.2999999999999972  0.2886110000000031   F   F   F
  0.2999999999999972  0.2000000000000028  0.2886110000000031   F   F   F
  0.2000000000000028  0.3999999999999986  0.3590739999999997   F   F   F
  0.2999999999999972  0.5000000000000000  0.3590739999999997   F   F   F
  0.2000000000000028  0.5000000000000000  0.2886110000000031   F   F   F
  0.2999999999999972  0.3999999999999986  0.2886110000000031   F   F   F
  0.2000000000000028  0.6000000000000014  0.3590739999999997   F   F   F
  0.2999999999999972  0.7000000000000028  0.3590739999999997   F   F   F
  0.2000000000000028  0.7000000000000028  0.2886110000000031   F   F   F
  0.2999999999999972  0.6000000000000014  0.2886110000000031   F   F   F
  0.2000000000000028  0.7999999999999972  0.3590739999999997   F   F   F
  0.2999999999999972  0.8999999999999986  0.3590739999999997   F   F   F
  0.2000000000000028  0.8999999999999986  0.2886110000000031   F   F   F
  0.2999999999999972  0.7999999999999972  0.2886110000000031   F   F   F
  0.3999999999999986  0.0000000000000000  0.3590739999999997   F   F   F
  0.5000000000000000  0.1000000000000014  0.3590739999999997   F   F   F
  0.3999999999999986  0.1000000000000014  0.2886110000000031   F   F   F
  0.5000000000000000  0.0000000000000000  0.2886110000000031   F   F   F
  0.3999999999999986  0.2000000000000028  0.3590739999999997   F   F   F
  0.5000000000000000  0.2999999999999972  0.3590739999999997   F   F   F
  0.3999999999999986  0.2999999999999972  0.2886110000000031   F   F   F
  0.5000000000000000  0.2000000000000028  0.2886110000000031   F   F   F
  0.3999999999999986  0.3999999999999986  0.3590739999999997   F   F   F
  0.5000000000000000  0.5000000000000000  0.3590739999999997   F   F   F
  0.3999999999999986  0.5000000000000000  0.2886110000000031   F   F   F
  0.5000000000000000  0.3999999999999986  0.2886110000000031   F   F   F
  0.3999999999999986  0.6000000000000014  0.3590739999999997   F   F   F
  0.5000000000000000  0.7000000000000028  0.3590739999999997   F   F   F
  0.3999999999999986  0.7000000000000028  0.2886110000000031   F   F   F
  0.5000000000000000  0.6000000000000014  0.2886110000000031   F   F   F
  0.3999999999999986  0.7999999999999972  0.3590739999999997   F   F   F
  0.5000000000000000  0.8999999999999986  0.3590739999999997   F   F   F
  0.3999999999999986  0.8999999999999986  0.2886110000000031   F   F   F
  0.5000000000000000  0.7999999999999972  0.2886110000000031   F   F   F
  0.6000000000000014  0.0000000000000000  0.3590739999999997   F   F   F
  0.7000000000000028  0.1000000000000014  0.3590739999999997   F   F   F
  0.6000000000000014  0.1000000000000014  0.2886110000000031   F   F   F
  0.7000000000000028  0.0000000000000000  0.2886110000000031   F   F   F
  0.6000000000000014  0.2000000000000028  0.3590739999999997   F   F   F
  0.7000000000000028  0.2999999999999972  0.3590739999999997   F   F   F
  0.6000000000000014  0.2999999999999972  0.2886110000000031   F   F   F
  0.7000000000000028  0.2000000000000028  0.2886110000000031   F   F   F
  0.6000000000000014  0.3999999999999986  0.3590739999999997   F   F   F
  0.7000000000000028  0.5000000000000000  0.3590739999999997   F   F   F
  0.6000000000000014  0.5000000000000000  0.2886110000000031   F   F   F
  0.7000000000000028  0.3999999999999986  0.2886110000000031   F   F   F
  0.6000000000000014  0.6000000000000014  0.3590739999999997   F   F   F
  0.7000000000000028  0.7000000000000028  0.3590739999999997   F   F   F
  0.6000000000000014  0.7000000000000028  0.2886110000000031   F   F   F
  0.7000000000000028  0.6000000000000014  0.2886110000000031   F   F   F
  0.6000000000000014  0.7999999999999972  0.3590739999999997   F   F   F
  0.7000000000000028  0.8999999999999986  0.3590739999999997   F   F   F
  0.6000000000000014  0.8999999999999986  0.2886110000000031   F   F   F
  0.7000000000000028  0.7999999999999972  0.2886110000000031   F   F   F
  0.7999999999999972  0.0000000000000000  0.3590739999999997   F   F   F
  0.8999999999999986  0.1000000000000014  0.3590739999999997   F   F   F
  0.7999999999999972  0.1000000000000014  0.2886110000000031   F   F   F
  0.8999999999999986  0.0000000000000000  0.2886110000000031   F   F   F
  0.7999999999999972  0.2000000000000028  0.3590739999999997   F   F   F
  0.8999999999999986  0.2999999999999972  0.3590739999999997   F   F   F