Cu Mg  O                                
   1.0000000000000000     
    21.1388521970183838    0.0000000000000000    0.0000000000000000
     0.0000000000000000   21.1388521970183838    0.0000000000000000
     0.0000000000000000    0.0000000000000000   22.1138852197018352
   Cu  
     4 
Selective dynamics
Direct
  0.3997991031042507  0.5577040095425428  0.5978195079886174   T   T   T
  0.3996560414823461  0.4991617146134951  0.7899052337791316   T   T   T
  0.3995990634862073  0.4989646540449508  0.6879526864422774   T   T   T
  0.3997926292549575  0.4410526955940843  0.5971134920955180   T   T   T
