Au 
 1.0000000000000000
    21.1388521970183838    0.0000000000000000    0.0000000000000000
     0.0000000000000000   21.1388521970183838    0.0000000000000000
     0.0000000000000000    0.0000000000000000   22.1138852197018352
  Au
   2
Direct
  0.6607314513810564  0.5000000001879528  0.6135783895939322
  0.5392684774606921  0.5000000001879528  0.6135783895939322
