Au                                      
   1.0000000000000000     
    20.0000000000000000    0.0000000000000000    0.0000000000000000
     0.0000000000000000   20.0000000000000000    0.0000000000000000
     0.0000000000000000    0.0000000000000000   20.0000000000000000
   Au
     6
Direct
  0.5861145187964212  0.4990779153750537  0.4648372899883455
  0.5426117270130106  0.3769606206038318  0.4494179764066288
  0.4575088756869974  0.4618587461189634  0.5003505004864195
  0.4992361803258518  0.5926458832104871  0.5187145663264516
  0.6212817119660485  0.6233152698005995  0.4840298152113647
  0.3789260659866684  0.5532320153060653  0.5505058308407911

  0.00000000E+00  0.00000000E+00  0.00000000E+00
  0.00000000E+00  0.00000000E+00  0.00000000E+00
  0.00000000E+00  0.00000000E+00  0.00000000E+00
  0.00000000E+00  0.00000000E+00  0.00000000E+00
  0.00000000E+00  0.00000000E+00  0.00000000E+00
  0.00000000E+00  0.00000000E+00  0.00000000E+00
