cu4                                     
   1.0000000000000000     
    20.0000000000000000    0.0000000000000000    0.0000000000000000
     0.0000000000000000   20.0000000000000000    0.0000000000000000
     0.0000000000000000    0.0000000000000000   20.0000000000000000
   Cu
     4
Direct
  0.0230856191970641  0.0092726757699937  0.0591712808139979
  0.9658169426767383  0.9833331704951133  0.9463785763634055
  0.9432987448254906  0.9330880443735452  0.0641620990237833
  0.9063683433007104  0.0465518093613499  0.0146369437988082

  0.00000000E+00  0.00000000E+00  0.00000000E+00
  0.00000000E+00  0.00000000E+00  0.00000000E+00
  0.00000000E+00  0.00000000E+00  0.00000000E+00
  0.00000000E+00  0.00000000E+00  0.00000000E+00
