Cu                                      
   1.0000000000000000     
    20.0000000000000000    0.0000000000000000    0.0000000000000000
     0.0000000000000000   20.0000000000000000    0.0000000000000000
     0.0000000000000000    0.0000000000000000   20.0000000000000000
   Cu
     8
Direct
  0.6358005552434973  0.4330229108471909  0.4627254869476233
  0.4428115841343058  0.5650895121993479  0.5168333438502700
  0.3663354982877716  0.5297398031823243  0.5988726782385192
  0.4617663614536093  0.4652719765575282  0.5752442648740438
  0.5579270751607577  0.4004825771916875  0.5500442444209440
  0.5411479049071780  0.4992028648749529  0.4898223938387344
  0.6168544317034926  0.5320753350731109  0.4045819413513607
  0.5202550326093893  0.5996115853388614  0.4337892895885066

  0.00000000E+00  0.00000000E+00  0.00000000E+00
  0.00000000E+00  0.00000000E+00  0.00000000E+00
  0.00000000E+00  0.00000000E+00  0.00000000E+00
  0.00000000E+00  0.00000000E+00  0.00000000E+00
  0.00000000E+00  0.00000000E+00  0.00000000E+00
  0.00000000E+00  0.00000000E+00  0.00000000E+00
  0.00000000E+00  0.00000000E+00  0.00000000E+00
  0.00000000E+00  0.00000000E+00  0.00000000E+00
