au4                                     
   1.0000000000000000     
    20.0000000000000000    0.0000000000000000    0.0000000000000000
     0.0000000000000000   20.0000000000000000    0.0000000000000000
     0.0000000000000000    0.0000000000000000   20.0000000000000000
   Au
     4
Direct
  0.0326092779811414  0.0112814342011740  0.0654577032021862
  0.9662565126544199  0.9822380596050477  0.9348132200299425
  0.9413221992991132  0.9239783300848101  0.0711171670641455
  0.8983816600653293  0.0547478761089700  0.0129608097037209

  0.00000000E+00  0.00000000E+00  0.00000000E+00
  0.00000000E+00  0.00000000E+00  0.00000000E+00
  0.00000000E+00  0.00000000E+00  0.00000000E+00
  0.00000000E+00  0.00000000E+00  0.00000000E+00
