Mg  O                                   
   1.0000000000000000     
    21.1388521970183838    0.0000000000000000    0.0000000000000000
     0.0000000000000000   21.1388521970183838    0.0000000000000000
     0.0000000000000000    0.0000000000000000   30.0000000000000000
   Au   Mg   O 
    20   200   200
Selective dynamics
Direct
  0.4976534300701587  0.4333019184048510  0.6113989055962108   T   T   T
  0.3261910350583861  0.3139292308515067  0.5787384561101447   T   T   T
  0.5575461385106735  0.5445531290212244  0.5920903954261405   T   T   T
  0.5674273974895030  0.3236734130424921  0.6193425004191226   T   T   T
  0.4487370268658921  0.0960419496832472  0.6035883484886497   T   T   T
  0.6372577749846613  0.2139954249468587  0.6179854992789018   T   T   T
  0.5097512584131394  0.2099791653384742  0.6254089331032446   T   T   T
  0.4284835609481021  0.5417294301256348  0.5923080654072379   T   T   T
  0.6854776359699954  0.5489227110986477  0.5966501482839774   T   T   T
  0.5740934718406834  0.0994019147246377  0.6111213493603955   T   T   T
  0.3699835437786732  0.4306513598000308  0.6067705279626097   T   T   T
  0.8195337501286559  0.3349763117152591  0.5920350886867638   T   T   T
  0.4391484955463980  0.3195884813057432  0.6205537497583720   T   T   T
  0.2506553332785799  0.4166128043864887  0.5811646328878695   T   T   T
  0.6946567065275602  0.3279597285132212  0.6094468841805636   T   T   T
  0.6869341381937133  0.1121641337002970  0.5751674441763654   T   T   T
  0.6257400936279396  0.4357823967145791  0.6068002852435868   T   T   T
  0.7558772390446791  0.4440865021557201  0.5960686969952107   T   T   T
  0.4032531952273288  0.2100909332305037  0.5771511131217295   T   T   T
  0.7587922016301221  0.2206182139703543  0.5838574652438879   T   T   T
  0.0000721108754149  0.9997415140326851  0.4296881144766758   T   T   T
  0.0998789392140651  0.0997773404000881  0.4297176974599708   T   T   T
  0.0002044865733808  0.0994447823735243  0.4997345072892330   T   T   T
  0.0998231589798522  0.9994088180341976  0.4996442890009050   T   T   T
  0.9999860550086552  0.2000236654473326  0.4298102773811010   T   T   T
  0.0996515780390865  0.3001266438516907  0.4298877324474972   T   T   T
  0.0000483982019972  0.3003126518433419  0.4999880849340386   T   T   T
  0.0994332616963405  0.1995280033190099  0.4998351070453211   T   T   T
  0.9996737269836231  0.4002617123043422  0.4297951418875527   T   T   T
  0.0998235085596662  0.5003136453237147  0.4298255982740216   T   T   T
  0.9996290915074582  0.5006874926040936  0.4997764533518279   T   T   T
  0.0984374225662066  0.4007796643797619  0.5000920647113745   T   T   T
  0.9998698068534679  0.6001342704141663  0.4297310347010139   T   T   T
  0.0999524506799716  0.7000580533270124  0.4297117685756149   T   T   T
  0.9999174976262495  0.7000563948714245  0.4996517542646188   T   T   T
  0.0997182095651326  0.6005276746572221  0.4997373236409075   T   T   T
  0.9999910669765057  0.7998467447083044  0.4296786459786617   T   T   T
  0.0999729408403809  0.8997874212453141  0.4296745778127260   T   T   T
  0.0001255280858956  0.8994955317562017  0.4996035179090654   T   T   T
  0.0999284845294568  0.7998261869601180  0.4996148608535691   T   T   T
  0.1998912344012993  0.9996995711656069  0.4297087587635247   T   T   T
  0.2999185215708167  0.0994424434617400  0.4298034534954525   T   T   T
  0.1992381969402501  0.0990216110480162  0.4997943057254872   T   T   T
  0.2995325886762430  0.9992303903629605  0.4998394045855150   T   T   T
  0.1994848157546372  0.1997851548085023  0.4297284788516222   T   T   T
  0.2999642997759651  0.2999663031267588  0.4292485163448774   T   T   T
  0.1980285165992157  0.2994648496891017  0.5003388585275417   T   T   T
  0.2973331796797183  0.1979581055779889  0.4995939650820986   T   T   T
  0.1998659580769129  0.4003975702956950  0.4294055155444383   T   T   T
  0.3003371774945478  0.5007423962859008  0.4295793430600625   T   T   T
  0.1997940725272827  0.5018543074559929  0.4998470818994107   T   T   T
  0.3021324418440940  0.4023872354113678  0.4992866881119582   T   T   T
  0.2000019742847954  0.6003551744260065  0.4297321203939646   T   T   T
  0.3000897725238900  0.7000889184862231  0.4297522174880442   T   T   T
  0.1999241902660174  0.7002475535319945  0.4996895960969425   T   T   T
  0.3000238628671070  0.6006324137848367  0.4998791945396377   T   T   T
  0.1999711455758444  0.7999228172812707  0.4296945735346682   T   T   T
  0.2999667914960895  0.8997952895534951  0.4297440499734577   T   T   T
  0.1997987802846524  0.8995989299017779  0.4996406355391514   T   T   T
  0.2998672166120642  0.7999346884729590  0.4996819088514499   T   T   T
  0.4000055825384052  0.9996509654687884  0.4297608913959650   T   T   T
  0.4998233484347807  0.0997890754621764  0.4297271878933628   T   T   T
  0.4000165573871328  0.0973638303055040  0.5008252965404978   T   T   T
  0.4999807689248712  0.9993254689784976  0.5002707995550395   T   T   T
  0.3999672854956273  0.1996737945769524  0.4289599547748182   T   T   T
  0.5007062357304974  0.3002262119243326  0.4297351003743515   T   T   T
  0.4025964979201646  0.3023065098235378  0.4994764522162569   T   T   T
  0.5024927014906595  0.1997816317622139  0.5003159384887326   T   T   T
  0.4008426724286096  0.4007491905217719  0.4294787908750521   T   T   T
  0.5002654015159607  0.5001237600113271  0.4296904079381250   T   T   T
  0.4005730287821621  0.5003486440462339  0.5011868433899380   T   T   T
  0.5008427110903142  0.4007196322248987  0.5009543199950031   T   T   T
  0.4002786794797970  0.6000170117021852  0.4297083914643522   T   T   T
  0.5000635033994456  0.6998801778277581  0.4298860837485208   T   T   T
  0.4001205329888506  0.7005505367736689  0.4998824836229474   T   T   T
  0.5000773174545472  0.6001205030283145  0.5005484109443117   T   T   T
  0.4000469749197606  0.7999337121627761  0.4297439124585196   T   T   T
  0.5000058654644022  0.8998770827418952  0.4297933189285033   T   T   T
  0.3999038886026511  0.8995232516422362  0.4998004528081239   T   T   T
  0.5000213078403846  0.7999041434935350  0.4997775937028521   T   T   T
  0.5999356060330854  0.9998624382996155  0.4298503839423589   T   T   T
  0.7001006308406801  0.0997033704688590  0.4290244672406587   T   T   T
  0.5975526046315736  0.0991876119663431  0.5008758333661447   T   T   T
  0.7003122421140304  0.9972949120898704  0.4996834319043160   T   T   T
  0.6000548673956558  0.2000315317715433  0.4297109325312718   T   T   T
  0.6998174541492261  0.3008175592674078  0.4295620602148418   T   T   T
  0.6001095264876355  0.3008017392699571  0.5008067209780123   T   T   T
  0.6986118628147437  0.2024923465315638  0.4995212554811133   T   T   T
  0.6001190010943844  0.4003136478200062  0.4298179882762412   T   T   T
  0.6999038606837971  0.5001451482243766  0.4295473062134576   T   T   T
  0.6002806482837784  0.5000205333452001  0.5007512354139365   T   T   T
  0.6998837054690341  0.4006839226213401  0.5006373961454358   T   T   T
  0.5999842049358577  0.5998807442006679  0.4297236417555013   T   T   T
  0.6999437741622998  0.6997714920850484  0.4298276020810761   T   T   T
  0.5999950808802978  0.7003019186515544  0.4999221894534216   T   T   T
  0.7001565049272216  0.6000724162674658  0.5004964993565792   T   T   T
  0.5999849638490105  0.7998224541644703  0.4297626837179536   T   T   T
  0.7000356125781835  0.8994961370619663  0.4296320776156008   T   T   T
  0.5998442232004777  0.8994361588313140  0.4997846608475740   T   T   T
  0.7001038590961102  0.7996714767178190  0.4997227826416619   T   T   T
  0.8002425656391452  0.9995578833145586  0.4297682336283373   T   T   T
  0.9003702459717644  0.0998399590761636  0.4297318553187424   T   T   T
  0.8026133963386641  0.0985245634440801  0.4998335750739287   T   T   T
  0.9006208807143068  0.9990667251342771  0.4997252543728763   T   T   T
  0.8000937316933658  0.2001491987564705  0.4294681586053883   T   T   T
  0.8998065153091233  0.3003193856419202  0.4297897641114545   T   T   T
  0.7996640046542467  0.3015097894631182  0.5003616415340133   T   T   T
  0.9011979700768293  0.2000120514853450  0.5002265782141748   T   T   T
  0.7997734560047078  0.4005662004302479  0.4294828432482092   T   T   T
  0.8997108992132112  0.5002322739620411  0.4298052344152410   T   T   T
  0.7997574787823893  0.5005818067802892  0.5004258865971494   T   T   T
  0.8998580161922334  0.4009381418894762  0.4999855091469740   T   T   T
  0.7998025202366605  0.5999608588743186  0.4297918249750978   T   T   T
  0.8999280909454157  0.6998984928877761  0.4297372808780366   T   T   T
  0.7999889246000222  0.6999322648769137  0.4997787591259026   T   T   T
  0.8998618013923618  0.6002182836617322  0.4997885527674129   T   T   T
  0.8000283991144812  0.7997219364292221  0.4297250455121855   T   T   T
  0.9000999630927637  0.8996900234036360  0.4296787944601661   T   T   T
  0.8004915318762045  0.8992325607695477  0.4996961569718010   T   T   T
  0.9001328313445356  0.7996590963445627  0.4996483045664490   T   T   T
  0.0000000000000000  0.0000000000000000  0.2886110000000031   F   F   F
  0.1000000000000014  0.1000000000000014  0.2886110000000031   F   F   F
  0.0000000000000000  0.1000000000000014  0.3590739999999997   F   F   F
  0.1000000000000014  0.0000000000000000  0.3590739999999997   F   F   F
  0.0000000000000000  0.2000000000000028  0.2886110000000031   F   F   F
  0.1000000000000014  0.2999999999999972  0.2886110000000031   F   F   F
  0.0000000000000000  0.2999999999999972  0.3590739999999997   F   F   F
  0.1000000000000014  0.2000000000000028  0.3590739999999997   F   F   F
  0.0000000000000000  0.3999999999999986  0.2886110000000031   F   F   F
  0.1000000000000014  0.5000000000000000  0.2886110000000031   F   F   F
  0.0000000000000000  0.5000000000000000  0.3590739999999997   F   F   F
  0.1000000000000014  0.3999999999999986  0.3590739999999997   F   F   F
  0.0000000000000000  0.6000000000000014  0.2886110000000031   F   F   F
  0.1000000000000014  0.7000000000000028  0.2886110000000031   F   F   F
  0.0000000000000000  0.7000000000000028  0.3590739999999997   F   F   F
  0.1000000000000014  0.6000000000000014  0.3590739999999997   F   F   F
  0.0000000000000000  0.7999999999999972  0.2886110000000031   F   F   F
  0.1000000000000014  0.8999999999999986  0.2886110000000031   F   F   F
  0.0000000000000000  0.8999999999999986  0.3590739999999997   F   F   F
  0.1000000000000014  0.7999999999999972  0.3590739999999997   F   F   F
  0.2000000000000028  0.0000000000000000  0.2886110000000031   F   F   F
  0.2999999999999972  0.1000000000000014  0.2886110000000031   F   F   F
  0.2000000000000028  0.1000000000000014  0.3590739999999997   F   F   F
  0.2999999999999972  0.0000000000000000  0.3590739999999997   F   F   F
  0.2000000000000028  0.2000000000000028  0.2886110000000031   F   F   F
  0.2999999999999972  0.2999999999999972  0.2886110000000031   F   F   F
  0.2000000000000028  0.2999999999999972  0.3590739999999997   F   F   F
  0.2999999999999972  0.2000000000000028  0.3590739999999997   F   F   F
  0.2000000000000028  0.3999999999999986  0.2886110000000031   F   F   F
  0.2999999999999972  0.5000000000000000  0.2886110000000031   F   F   F
  0.2000000000000028  0.5000000000000000  0.3590739999999997   F   F   F
  0.2999999999999972  0.3999999999999986  0.3590739999999997   F   F   F
  0.2000000000000028  0.6000000000000014  0.2886110000000031   F   F   F
  0.2999999999999972  0.7000000000000028  0.2886110000000031   F   F   F
  0.2000000000000028  0.7000000000000028  0.3590739999999997   F   F   F
  0.2999999999999972  0.6000000000000014  0.3590739999999997   F   F   F
  0.2000000000000028  0.7999999999999972  0.2886110000000031   F   F   F
  0.2999999999999972  0.8999999999999986  0.2886110000000031   F   F   F
  0.2000000000000028  0.8999999999999986  0.3590739999999997   F   F   F
  0.2999999999999972  0.7999999999999972  0.3590739999999997   F   F   F
  0.3999999999999986  0.0000000000000000  0.2886110000000031   F   F   F
  0.5000000000000000  0.1000000000000014  0.2886110000000031   F   F   F
  0.3999999999999986  0.1000000000000014  0.3590739999999997   F   F   F
  0.5000000000000000  0.0000000000000000  0.3590739999999997   F   F   F
  0.3999999999999986  0.2000000000000028  0.2886110000000031   F   F   F
  0.5000000000000000  0.2999999999999972  0.2886110000000031   F   F   F
  0.3999999999999986  0.2999999999999972  0.3590739999999997   F   F   F
  0.5000000000000000  0.2000000000000028  0.3590739999999997   F   F   F
  0.3999999999999986  0.3999999999999986  0.2886110000000031   F   F   F
  0.5000000000000000  0.5000000000000000  0.2886110000000031   F   F   F
  0.3999999999999986  0.5000000000000000  0.3590739999999997   F   F   F
  0.5000000000000000  0.3999999999999986  0.3590739999999997   F   F   F
  0.3999999999999986  0.6000000000000014  0.2886110000000031   F   F   F
  0.5000000000000000  0.7000000000000028  0.2886110000000031   F   F   F
  0.3999999999999986  0.7000000000000028  0.3590739999999997   F   F   F
  0.5000000000000000  0.6000000000000014  0.3590739999999997   F   F   F
  0.3999999999999986  0.7999999999999972  0.2886110000000031   F   F   F
  0.5000000000000000  0.8999999999999986  0.2886110000000031   F   F   F
  0.3999999999999986  0.8999999999999986  0.3590739999999997   F   F   F
  0.5000000000000000  0.7999999999999972  0.3590739999999997   F   F   F
  0.6000000000000014  0.0000000000000000  0.2886110000000031   F   F   F
  0.7000000000000028  0.1000000000000014  0.2886110000000031   F   F   F
  0.6000000000000014  0.1000000000000014  0.3590739999999997   F   F   F
  0.7000000000000028  0.0000000000000000  0.3590739999999997   F   F   F
  0.6000000000000014  0.2000000000000028  0.2886110000000031   F   F   F
  0.7000000000000028  0.2999999999999972  0.2886110000000031   F   F   F
  0.6000000000000014  0.2999999999999972  0.3590739999999997   F   F   F
  0.7000000000000028  0.2000000000000028  0.3590739999999997   F   F   F
  0.6000000000000014  0.3999999999999986  0.2886110000000031   F   F   F
  0.7000000000000028  0.5000000000000000  0.2886110000000031   F   F   F
  0.6000000000000014  0.5000000000000000  0.3590739999999997   F   F   F
  0.7000000000000028  0.3999999999999986  0.3590739999999997   F   F   F
  0.6000000000000014  0.6000000000000014  0.2886110000000031   F   F   F
  0.7000000000000028  0.7000000000000028  0.2886110000000031   F   F   F
  0.6000000000000014  0.7000000000000028  0.3590739999999997   F   F   F
  0.7000000000000028  0.6000000000000014  0.3590739999999997   F   F   F
  0.6000000000000014  0.7999999999999972  0.2886110000000031   F   F   F
  0.7000000000000028  0.8999999999999986  0.2886110000000031   F   F   F
  0.6000000000000014  0.8999999999999986  0.3590739999999997   F   F   F
  0.7000000000000028  0.7999999999999972  0.3590739999999997   F   F   F
  0.7999999999999972  0.0000000000000000  0.2886110000000031   F   F   F
  0.8999999999999986  0.1000000000000014  0.2886110000000031   F   F   F
  0.7999999999999972  0.1000000000000014  0.3590739999999997   F   F   F
  0.8999999999999986  0.0000000000000000  0.3590739999999997   F   F   F
  0.7999999999999972  0.2000000000000028  0.2886110000000031   F   F   F
  0.8999999999999986  0.2999999999999972  0.2886110000000031   F   F   F
  0.7999999999999972  0.2999999999999972  0.3590739999999997   F   F   F
  0.8999999999999986  0.2000000000000028  0.3590739999999997   F   F   F
  0.7999999999999972  0.3999999999999986  0.2886110000000031   F   F   F
  0.8999999999999986  0.5000000000000000  0.2886110000000031   F   F   F
  0.7999999999999972  0.5000000000000000  0.3590739999999997   F   F   F
  0.8999999999999986  0.3999999999999986  0.3590739999999997   F   F   F
  0.7999999999999972  0.6000000000000014  0.2886110000000031   F   F   F
  0.8999999999999986  0.7000000000000028  0.2886110000000031   F   F   F
  0.7999999999999972  0.7000000000000028  0.3590739999999997   F   F   F
  0.8999999999999986  0.6000000000000014  0.3590739999999997   F   F   F
  0.7999999999999972  0.7999999999999972  0.2886110000000031   F   F   F
  0.8999999999999986  0.8999999999999986  0.2886110000000031   F   F   F
  0.7999999999999972  0.8999999999999986  0.3590739999999997   F   F   F
  0.8999999999999986  0.7999999999999972  0.3590739999999997   F   F   F
  0.0001167325403557  0.9996949458508269  0.5008046464163911   T   T   T
  0.0997808656329866  0.0997074928735771  0.5008570228528200   T   T   T
  0.0000395403446944  0.1000571701103041  0.4295270051398248   T   T   T
  0.0999620833938124  0.9999823277997635  0.4294779773817581   T   T   T
  0.0001682441433459  0.1999176496986479  0.5010153712134766   T   T   T
  0.0996374228849959  0.3001328300310249  0.5010983689351178   T   T   T
  0.9998987604423846  0.2999699874777306  0.4297229452395683   T   T   T
  0.0999472292619927  0.2001308914181053  0.4295902259362663   T   T   T
  0.9998285305291219  0.4001995438841988  0.5009901092759179   T   T   T
  0.0998779156106906  0.5002918814553894  0.5009693722869812   T   T   T
  0.0001290555915290  0.4999766217977211  0.4295395438070173   T   T   T
  0.1003160171570556  0.3999433842948434  0.4298660425111152   T   T   T
  0.0000677659620365  0.6002509310657231  0.5008418691923495   T   T   T
  0.0999310363643815  0.7001451209727776  0.5008098947626820   T   T   T
  0.0000685083681446  0.7000293738725034  0.4294595234491183   T   T   T
  0.1000361008428996  0.6000104299118973  0.4295119198076520   T   T   T
  0.0000913171098276  0.7999174355541356  0.5007765208513248   T   T   T
  0.0999119520500571  0.8998103629013130  0.5007715673167681   T   T   T
  0.0000349366310033  0.8999690643929767  0.4294472606035171   T   T   T
  0.0999700842198479  0.8000115861647146  0.4294446436242012   T   T   T
  0.1996831079284718  0.9997015772474143  0.5008427004947507   T   T   T
  0.2995052213442264  0.0994887828648530  0.5008791663411003   T   T   T
  0.1998980323381829  0.1000292366712046  0.4295706858706581   T   T   T
  0.2999059054100854  0.9999290591846801  0.4295570029203688   T   T   T
  0.1991848212474565  0.1996967410473971  0.5009330562066125   T   T   T
  0.2984111470208575  0.2985794871752319  0.5011928950493356   T   T   T
  0.2000964332460313  0.3003914364381259  0.4301473380748675   T   T   T
  0.2998505694961580  0.2001159610536831  0.4298405539358683   T   T   T
  0.1986676138188770  0.4003263725983359  0.5030013508350706   T   T   T
  0.2996872711070324  0.5011412109564901  0.4994290295566088   T   T   T
  0.1998300323847246  0.4996760198607646  0.4296797909270751   T   T   T
  0.2994584358388508  0.3994924046638744  0.4298721071318070   T   T   T
  0.1997872649222359  0.6005010176416832  0.5008204417310225   T   T   T
  0.2998368632128603  0.7002780820922112  0.5008474326633561   T   T   T
  0.1999148252631215  0.7000914236443379  0.4294727610358109   T   T   T
  0.2999010145593246  0.6003705555025007  0.4294154518159559   T   T   T
  0.1998240642954130  0.8000126776796250  0.5007879277535068   T   T   T
  0.2997189692445659  0.8998546983255054  0.5008427550110923   T   T   T
  0.1999173027997330  0.8999912192396735  0.4294689365762494   T   T   T
  0.2999260632931637  0.8000632635788918  0.4294867264726321   T   T   T
  0.3997334709780844  0.9992501822246425  0.5008958989779018   T   T   T
  0.4993882961675382  0.1000101177372983  0.4995724202942995   T   T   T
  0.3995670359400449  0.1002289097095925  0.4298281234344898   T   T   T
  0.4998852290408138  0.9999546342242525  0.4295601636790209   T   T   T
  0.3980346534717540  0.1991061189355321  0.5011957919500958   T   T   T
  0.5002568122467750  0.2992505777746644  0.5002562233297567   T   T   T
  0.3994610409557424  0.2993174271390728  0.4298805816219158   T   T   T
  0.4993145988531253  0.1998485921969504  0.4297465764540576   T   T   T
  0.4004735205084060  0.4000457199062737  0.4991084309324592   T   T   T
  0.5002477764747653  0.4999061047342792  0.4990789612206328   T   T   T
  0.3997875944866252  0.5002535451402892  0.4293913382337422   T   T   T
  0.5000644962288590  0.3996092269872307  0.4293013331502706   T   T   T
  0.3997839932545091  0.6009280072788599  0.5009732613018940   T   T   T
  0.4999253484938038  0.7004123403395752  0.5009144036629465   T   T   T
  0.3999292979890186  0.7001381479115238  0.4295653288996348   T   T   T
  0.4998635088917922  0.6003183395660869  0.4295738208697983   T   T   T
  0.3998472969280087  0.8001821565802700  0.5008758189366205   T   T   T
  0.4999999184161510  0.8999296214776535  0.5008799725466773   T   T   T
  0.3999168941070295  0.9000060021242220  0.4295225950122159   T   T   T
  0.4999710280466516  0.8001319258460384  0.4295329696952948   T   T   T
  0.6003450902227527  0.9997690356374491  0.5005739933742248   T   T   T
  0.7027074783473566  0.0980038735102511  0.5008458678304351   T   T   T
  0.6005776496951327  0.0998719448970675  0.4298466230305991   T   T   T
  0.7002963615906310  0.0001383024898445  0.4296645025442629   T   T   T
  0.6004409361539018  0.1994897778757831  0.4998208301701865   T   T   T
  0.6998188272078707  0.3006442999237322  0.4993322353322540   T   T   T
  0.6000461097129062  0.2996038336661258  0.4293483880994060   T   T   T
  0.7006037530838682  0.1993227080133764  0.4298655038741401   T   T   T
  0.6000552304250064  0.3998648906444515  0.5001193598170062   T   T   T
  0.7000262648822897  0.5001195596956123  0.4989692322547867   T   T   T
  0.5999901801818766  0.5002222882160154  0.4293218627876101   T   T   T
  0.7000913722468596  0.4000102327714856  0.4291196198190335   T   T   T
  0.5998690314204111  0.6008189534339294  0.5006459572852933   T   T   T
  0.7000805131038206  0.7003002769224551  0.5009218143123917   T   T   T
  0.5999671935910271  0.7001638522777611  0.4295583739713607   T   T   T
  0.6999509823688967  0.6003632085562032  0.4295167411493850   T   T   T
  0.6000505463535077  0.8001430974069095  0.5008614315432141   T   T   T
  0.7002370029410656  0.8994645819938611  0.5007388875158085   T   T   T
  0.6001111811899449  0.9000462480784890  0.4295177682440467   T   T   T
  0.7000720761046395  0.7999884446253134  0.4294861818416322   T   T   T
  0.8005391893327740  0.9993988873924806  0.5008776323768558   T   T   T
  0.9006752433882070  0.0997196255555153  0.5009485719484488   T   T   T
  0.8001172179328790  0.1001427037689595  0.4298718207111705   T   T   T
  0.9000937500365822  0.0000052200698235  0.4295233714310740   T   T   T
  0.8009069953662973  0.1991201658573445  0.5022257914669694   T   T   T
  0.9003423871523211  0.3000089058048374  0.5016088778622247   T   T   T
  0.8003008618558525  0.2994238399089966  0.4297542069432438   T   T   T
  0.8998409177639957  0.2000214284853001  0.4299443586459049   T   T   T
  0.8005332448963358  0.4006856333250823  0.4990313336850889   T   T   T
  0.9002509419362212  0.5003558378954267  0.5007775929188441   T   T   T
  0.8003125751601630  0.5003329315678755  0.4292759621358258   T   T   T
  0.9002739144417902  0.3998350785604927  0.4294981091605834   T   T   T
  0.8002610472627296  0.6003755603008472  0.5007209018532421   T   T   T
  0.9001618725053930  0.7001155770116156  0.5008410377291241   T   T   T
  0.8000950974729832  0.7000968219200558  0.4295042296157803   T   T   T
  0.9001706172657293  0.6001306107177768  0.4294917789353505   T   T   T
  0.8002412797070946  0.7999478874487878  0.5008292317000880   T   T   T
  0.9003053195787913  0.8996990296481471  0.5007914760436307   T   T   T
  0.8001040661734677  0.8999436719231682  0.4294904302975340   T   T   T
  0.9000911209120730  0.7999872409944970  0.4294615828357777   T   T   T
  0.0000000000000000  0.0000000000000000  0.3590739999999997   F   F   F
  0.1000000000000014  0.1000000000000014  0.3590739999999997   F   F   F
  0.0000000000000000  0.1000000000000014  0.2886110000000031   F   F   F
  0.1000000000000014  0.0000000000000000  0.2886110000000031   F   F   F
  0.0000000000000000  0.2000000000000028  0.3590739999999997   F   F   F
  0.1000000000000014  0.2999999999999972  0.3590739999999997   F   F   F
  0.0000000000000000  0.2999999999999972  0.2886110000000031   F   F   F
  0.1000000000000014  0.2000000000000028  0.2886110000000031   F   F   F
  0.0000000000000000  0.3999999999999986  0.3590739999999997   F   F   F
  0.1000000000000014  0.5000000000000000  0.3590739999999997   F   F   F
  0.0000000000000000  0.5000000000000000  0.2886110000000031   F   F   F
  0.1000000000000014  0.3999999999999986  0.2886110000000031   F   F   F
  0.0000000000000000  0.6000000000000014  0.3590739999999997   F   F   F
  0.1000000000000014  0.7000000000000028  0.3590739999999997   F   F   F
  0.0000000000000000  0.7000000000000028  0.2886110000000031   F   F   F
  0.1000000000000014  0.6000000000000014  0.2886110000000031   F   F   F
  0.0000000000000000  0.7999999999999972  0.3590739999999997   F   F   F
  0.1000000000000014  0.8999999999999986  0.3590739999999997   F   F   F
  0.0000000000000000  0.8999999999999986  0.2886110000000031   F   F   F
  0.1000000000000014  0.7999999999999972  0.2886110000000031   F   F   F
  0.2000000000000028  0.0000000000000000  0.3590739999999997   F   F   F
  0.2999999999999972  0.1000000000000014  0.3590739999999997   F   F   F
  0.2000000000000028  0.1000000000000014  0.2886110000000031   F   F   F
  0.2999999999999972  0.0000000000000000  0.2886110000000031   F   F   F
  0.2000000000000028  0.2000000000000028  0.3590739999999997   F   F   F
  0.2999999999999972  0.2999999999999972  0.3590739999999997   F   F   F
  0.2000000000000028  0.2999999999999972  0.2886110000000031   F   F   F
  0.2999999999999972  0.2000000000000028  0.2886110000000031   F   F   F
  0.2000000000000028  0.3999999999999986  0.3590739999999997   F   F   F
  0.2999999999999972  0.5000000000000000  0.3590739999999997   F   F   F
  0.2000000000000028  0.5000000000000000  0.2886110000000031   F   F   F
  0.2999999999999972  0.3999999999999986  0.2886110000000031   F   F   F
  0.2000000000000028  0.6000000000000014  0.3590739999999997   F   F   F
  0.2999999999999972  0.7000000000000028  0.3590739999999997   F   F   F
  0.2000000000000028  0.7000000000000028  0.2886110000000031   F   F   F
  0.2999999999999972  0.6000000000000014  0.2886110000000031   F   F   F
  0.2000000000000028  0.7999999999999972  0.3590739999999997   F   F   F
  0.2999999999999972  0.8999999999999986  0.3590739999999997   F   F   F
  0.2000000000000028  0.8999999999999986  0.2886110000000031   F   F   F
  0.2999999999999972  0.7999999999999972  0.2886110000000031   F   F   F
  0.3999999999999986  0.0000000000000000  0.3590739999999997   F   F   F
  0.5000000000000000  0.1000000000000014  0.3590739999999997   F   F   F
  0.3999999999999986  0.1000000000000014  0.2886110000000031   F   F   F
  0.5000000000000000  0.0000000000000000  0.2886110000000031   F   F   F
  0.3999999999999986  0.2000000000000028  0.3590739999999997   F   F   F
  0.5000000000000000  0.2999999999999972  0.3590739999999997   F   F   F
  0.3999999999999986  0.2999999999999972  0.2886110000000031   F   F   F
  0.5000000000000000  0.2000000000000028  0.2886110000000031   F   F   F
  0.3999999999999986  0.3999999999999986  0.3590739999999997   F   F   F
  0.5000000000000000  0.5000000000000000  0.3590739999999997   F   F   F
  0.3999999999999986  0.5000000000000000  0.2886110000000031   F   F   F
  0.5000000000000000  0.3999999999999986  0.2886110000000031   F   F   F
  0.3999999999999986  0.6000000000000014  0.3590739999999997   F   F   F
  0.5000000000000000  0.7000000000000028  0.3590739999999997   F   F   F
  0.3999999999999986  0.7000000000000028  0.2886110000000031   F   F   F
  0.5000000000000000  0.6000000000000014  0.2886110000000031   F   F   F
  0.3999999999999986  0.7999999999999972  0.3590739999999997   F   F   F
  0.5000000000000000  0.8999999999999986  0.3590739999999997   F   F   F
  0.3999999999999986  0.8999999999999986  0.2886110000000031   F   F   F
  0.5000000000000000  0.7999999999999972  0.2886110000000031   F   F   F
  0.6000000000000014  0.0000000000000000  0.3590739999999997   F   F   F
  0.7000000000000028  0.1000000000000014  0.3590739999999997   F   F   F
  0.6000000000000014  0.1000000000000014  0.2886110000000031   F   F   F
  0.7000000000000028  0.0000000000000000  0.2886110000000031   F   F   F
  0.6000000000000014  0.2000000000000028  0.3590739999999997   F   F   F
  0.7000000000000028  0.2999999999999972  0.3590739999999997   F   F   F
  0.6000000000000014  0.2999999999999972  0.2886110000000031   F   F   F
  0.7000000000000028  0.2000000000000028  0.2886110000000031   F   F   F
  0.6000000000000014  0.3999999999999986  0.3590739999999997   F   F   F
  0.7000000000000028  0.5000000000000000  0.3590739999999997   F   F   F
  0.6000000000000014  0.5000000000000000  0.2886110000000031   F   F   F
  0.7000000000000028  0.3999999999999986  0.2886110000000031   F   F   F
  0.6000000000000014  0.6000000000000014  0.3590739999999997   F   F   F
  0.7000000000000028  0.7000000000000028  0.3590739999999997   F   F   F
  0.6000000000000014  0.7000000000000028  0.2886110000000031   F   F   F
  0.7000000000000028  0.6000000000000014  0.2886110000000031   F   F   F
  0.6000000000000014  0.7999999999999972  0.3590739999999997   F   F   F
  0.7000000000000028  0.8999999999999986  0.3590739999999997   F   F   F
  0.6000000000000014  0.8999999999999986  0.2886110000000031   F   F   F
  0.7000000000000028  0.7999999999999972  0.2886110000000031   F   F   F
  0.7999999999999972  0.0000000000000000  0.3590739999999997   F   F   F
  0.8999999999999986  0.1000000000000014  0.3590739999999997   F   F   F
  0.7999999999999972  0.1000000000000014  0.2886110000000031   F   F   F
  0.8999999999999986  0.0000000000000000  0.2886110000000031   F   F   F
  0.7999999999999972  0.2000000000000028  0.3590739999999997   F   F   F
  0.8999999999999986  0.2999999999999972  0.3590739999999997   F   F   F