ag4                                     
   1.0000000000000000     
    20.0000000000000000    0.0000000000000000    0.0000000000000000
     0.0000000000000000   20.0000000000000000    0.0000000000000000
     0.0000000000000000    0.0000000000000000   20.0000000000000000
   Ag
     4
Direct
  0.9722744102860048  0.1093944959650699  0.9998971325467494
  0.9583296052252877  0.8565801985771344  0.9519658652721219
  0.9924767297750492  0.9741831234571237  0.9913159238907383
  0.0769192547136655  0.0598421820006649  0.0568210782903975

  0.00000000E+00  0.00000000E+00  0.00000000E+00
  0.00000000E+00  0.00000000E+00  0.00000000E+00
  0.00000000E+00  0.00000000E+00  0.00000000E+00
  0.00000000E+00  0.00000000E+00  0.00000000E+00
