au4                                     
   1.00000000000000     
    20.0000000000000000    0.0000000000000000    0.0000000000000000
     0.0000000000000000   20.0000000000000000    0.0000000000000000
     0.0000000000000000    0.0000000000000000   20.0000000000000000
   Au
     4
Direct
  0.0294911225121126  0.0197213305189692  0.0548010697015258
  0.9704124844338367  0.9803810264233306  0.9452103450782587
  0.9329823818078111  0.9281163962535430  0.0619131631193639
  0.0671140112462396  0.0717812468091594  0.9380754221008516
 
  0.00000000E+00  0.00000000E+00  0.00000000E+00
  0.00000000E+00  0.00000000E+00  0.00000000E+00
  0.00000000E+00  0.00000000E+00  0.00000000E+00
  0.00000000E+00  0.00000000E+00  0.00000000E+00
