Mg  O                                   
   1.00000000000000     
    21.1388521970183838    0.0000000000000000    0.0000000000000000
     0.0000000000000000   21.1388521970183838    0.0000000000000000
     0.0000000000000000    0.0000000000000000   30.0000000000000000
   Au
    20
Selective dynamics
Direct
  0.5248720476676354  0.4472719521136170  0.6039506546517828   T   T   T
  0.3923113278176587  0.4616513921169414  0.6107869952421368   T   T   T
  0.2633930474423209  0.4760885497502940  0.6107937722782566   T   T   T
  0.1417082152947842  0.4878001317828762  0.5809240235004012   T   T   T
  0.5965224678127967  0.5519997675435278  0.5990549841520618   T   T   T
  0.4690706402219433  0.5638579766392624  0.6099450553126928   T   T   T
  0.3424612724788503  0.5795467485929322  0.6151164510345737   T   T   T
  0.2227760378738850  0.5896337857176377  0.5802316698321093   T   T   T
  0.5666424896502136  0.3283824549266470  0.6077840244519805   T   T   T
  0.4413974811128725  0.3448423844900361  0.6056758174350421   T   T   T
  0.3155076694203842  0.3568121610010522  0.6064434191428774   T   T   T
  0.1887107547521509  0.3719252210185502  0.5962148273966079   T   T   T
  0.6638496460168142  0.6570140584375750  0.5803725678059379   T   T   T
  0.5418398103033937  0.6706596796791828  0.6003716376756785   T   T   T
  0.4197112115293251  0.6852604983504094  0.6132180901124613   T   T   T
  0.3058403989613225  0.6881384466680345  0.5755475701255790   T   T   T
  0.5903129488924392  0.2156935630878820  0.5721043976675233   T   T   T
  0.4829127228146106  0.2239064930200669  0.6152917146241137   T   T   T
  0.3614378378611889  0.2377150971058626  0.5986798793143322   T   T   T
  0.2351264250208018  0.2551246310574626  0.5906306080582766   T   T   T
 
  0.00000000E+00  0.00000000E+00  0.00000000E+00
  0.00000000E+00  0.00000000E+00  0.00000000E+00
  0.00000000E+00  0.00000000E+00  0.00000000E+00
  0.00000000E+00  0.00000000E+00  0.00000000E+00
  0.00000000E+00  0.00000000E+00  0.00000000E+00
  0.00000000E+00  0.00000000E+00  0.00000000E+00
  0.00000000E+00  0.00000000E+00  0.00000000E+00
  0.00000000E+00  0.00000000E+00  0.00000000E+00
  0.00000000E+00  0.00000000E+00  0.00000000E+00
  0.00000000E+00  0.00000000E+00  0.00000000E+00
  0.00000000E+00  0.00000000E+00  0.00000000E+00
  0.00000000E+00  0.00000000E+00  0.00000000E+00
  0.00000000E+00  0.00000000E+00  0.00000000E+00
  0.00000000E+00  0.00000000E+00  0.00000000E+00
  0.00000000E+00  0.00000000E+00  0.00000000E+00
  0.00000000E+00  0.00000000E+00  0.00000000E+00
  0.00000000E+00  0.00000000E+00  0.00000000E+00
  0.00000000E+00  0.00000000E+00  0.00000000E+00
  0.00000000E+00  0.00000000E+00  0.00000000E+00
  0.00000000E+00  0.00000000E+00  0.00000000E+00
