Mg  O                                   
   1.0000000000000000     
    21.1388521970183838    0.0000000000000000    0.0000000000000000
     0.0000000000000000   21.1388521970183838    0.0000000000000000
     0.0000000000000000    0.0000000000000000   30.0000000000000000
   Au  
    20 
Selective dynamics
Direct
  0.5248720476676374  0.4472719521136159  0.6039506546517831   T   T   T
  0.3923113278176599  0.4616513921169428  0.6107869952421380   T   T   T
  0.2633930474423244  0.4760885497502946  0.6107937722782594   T   T   T
  0.1417082152947849  0.4878001317828763  0.5809240235004038   T   T   T
  0.5965224678127978  0.5519997675435278  0.5990549841520645   T   T   T
  0.4690706402219464  0.5638579766392614  0.6099450553126901   T   T   T
  0.3424612724788488  0.5795467485929299  0.6151164510345739   T   T   T
  0.2227760378738869  0.5896337857176379  0.5802316698321098   T   T   T
  0.5666424896502107  0.3283824549266455  0.6077840244519817   T   T   T
  0.4413974811128712  0.3448423844900376  0.6056758174350437   T   T   T
  0.3155076694203869  0.3568121610010538  0.6064434191428757   T   T   T
  0.1887107547521476  0.3719252210185517  0.5962148273966086   T   T   T
  0.6638496460168106  0.6570140584375758  0.5803725678059363   T   T   T
  0.5418398103033939  0.6706596796791835  0.6003716376756772   T   T   T
  0.4197112115293263  0.6852604983504085  0.6132180901124591   T   T   T
  0.3058403989613240  0.6881384466680366  0.5755475701255803   T   T   T
  0.5903129488924386  0.2156935630878828  0.5721043976675245   T   T   T
  0.4829127228146081  0.2239064930200662  0.6152917146241157   T   T   T
  0.3614378378611872  0.2377150971058617  0.5986798793143334   T   T   T
  0.2351264250208038  0.2551246310574612  0.5906306080582776   T   T   T
