Mg  O                                   
   1.0000000000000000     
    21.1388521970183838    0.0000000000000000    0.0000000000000000
     0.0000000000000000   21.1388521970183838    0.0000000000000000
     0.0000000000000000    0.0000000000000000   30.0000000000000000
   Au   Mg   O 
    20   200   200
Selective dynamics
Direct
  0.4263423334423628  0.2102118295816939  0.5803264363269085   T   T   T
  0.5563893466440533  0.1917088936852610  0.5983623977019192   T   T   T
  0.6778272834979151  0.1746583965289378  0.6104501832996702   T   T   T
  0.7926587390457399  0.2334730700322138  0.5824542681819156   T   T   T
  0.5059688410143267  0.3161633481141355  0.5883382192925558   T   T   T
  0.6392778241989400  0.2992118286649071  0.6027488515746887   T   T   T
  0.7619376640873970  0.3629993144294884  0.5873402805707950   T   T   T
  0.5784909291222193  0.4171956106620853  0.6062484950704848   T   T   T
  0.6973269449369994  0.4751901256930826  0.5823003278869238   T   T   T
  0.6041481676270163  0.5768205598705994  0.5786736887672347   T   T   T
  0.4709040059402319  0.2312874095678426  0.6617250192743442   T   T   T
  0.5622732032048647  0.2295155346564594  0.7243736817745365   T   T   T
  0.6847832625791618  0.1925373856504038  0.7072228621688047   T   T   T
  0.7829995019884111  0.1466396295475383  0.6567285470096068   T   T   T
  0.5398486203240799  0.3397701339012882  0.6768408228827740   T   T   T
  0.6601609355648667  0.3174740602896257  0.7193247778960954   T   T   T
  0.7523222450035781  0.2811179586731990  0.6597166504620662   T   T   T
  0.6035389687986600  0.4347631041542154  0.7220054494582602   T   T   T
  0.6957788068403155  0.4083637808999263  0.6595661609250054   T   T   T
  0.6174523214881402  0.5199797062414845  0.6544511202042219   T   T   T
  0.0000151069671097 -0.0000750389407047  0.4305281820063042   T   T   T
  0.0999743719127495  0.0998787121004636  0.4305518845882272   T   T   T
  0.0003147179325468  0.0995519733282771  0.5011282741936464   T   T   T
  0.0999728838073536 -0.0002860597944495  0.5010290500053186   T   T   T
  0.0001522032398086  0.1998623275892786  0.4305594618324139   T   T   T
  0.1000608931488003  0.2999826730374181  0.4305043879602190   T   T   T
  0.0006581542903859  0.2999985821266001  0.5009767738252524   T   T   T
  0.1000030993243340  0.1998177859265544  0.5010896370132911   T   T   T
  0.0002372171716600  0.4000380470079951  0.4304970674397934   T   T   T
  0.1000666528895881  0.5001032193209264  0.4305258286231153   T   T   T
  0.0004387029326979  0.5002402792121887  0.5010786006674915   T   T   T
  0.1001197785966218  0.4001987433335757  0.5010299282602093   T   T   T
  0.0001427177305196  0.6000816801013953  0.4305352240383613   T   T   T
  0.1000225327132599  0.7000669464291431  0.4305234915991833   T   T   T
  0.0002290677290152  0.7002173319816772  0.5010314288245339   T   T   T
  0.1000757833535577  0.6002182907067590  0.5010330265146018   T   T   T
  0.0000715617143709  0.8000473561758449  0.4305204658782192   T   T   T
  0.0999930973688630  0.8999561930012371  0.4305139311534138   T   T   T
  0.0001505061537149  0.8999100708404095  0.5010185757381811   T   T   T
  0.1000166908165341  0.8000342598347955  0.5010095373779316   T   T   T
  0.1999346425673119 -0.0001187876584915  0.4305136671755820   T   T   T
  0.2998985528526832  0.0998194213145011  0.4307806094837968   T   T   T
  0.1995992691874173  0.0994648671844550  0.5011100855687752   T   T   T
  0.2995755075771483  0.9994988907893468  0.5010964303417561   T   T   T
  0.1997792443415200  0.1999241230170741  0.4305595701708163   T   T   T
  0.2998364655536244  0.3000815438963721  0.4307798576959654   T   T   T
  0.1995783347375887  0.3002812509108863  0.5011091379264557   T   T   T
  0.2977238274505252  0.1997249380469783  0.5016405867437795   T   T   T
  0.1999404739880842  0.4000952745140737  0.4305146693550767   T   T   T
  0.2998456575412071  0.5001415913998044  0.4305206024424442   T   T   T
  0.1998247386925656  0.5002923472891825  0.5010436381729093   T   T   T
  0.2993368115780529  0.4005276496160222  0.5011533503221626   T   T   T
  0.1999413665310096  0.6001116653855244  0.4305223352544234   T   T   T
  0.2998595991236421  0.7000920603697430  0.4305401566207470   T   T   T
  0.1998758046886929  0.7001610293350018  0.5010170216022406   T   T   T
  0.2996050240064837  0.6002631813698047  0.5010563704664266   T   T   T
  0.1999443934146612  0.8000129248980457  0.4305228990140873   T   T   T
  0.2999274085375035  0.8999229974600013  0.4305331340337321   T   T   T
  0.1998410172016068  0.8998391263472790  0.5010108507049265   T   T   T
  0.2997441804707542  0.8000944096292517  0.5010372363620518   T   T   T
  0.3999872208616744  0.9997639720417234  0.4305612066162363   T   T   T
  0.5002770970017931  0.0997777518524953  0.4307151728452575   T   T   T
  0.3998080882130445  0.0977043018524398  0.5016330643906906   T   T   T
  0.5002541816929725  0.9995369163053597  0.5010904705895174   T   T   T
  0.4000264829878593  0.1999577737814745  0.4297287329123080   T   T   T
  0.5000801685207752  0.3001265722242893  0.4303471781745891   T   T   T
  0.3987414968290238  0.3021779395975295  0.5020548327978678   T   T   T
  0.5028812955086788  0.1984635108746829  0.5018113778259679   T   T   T
  0.3999785029921037  0.4002237309997040  0.4306675711379421   T   T   T
  0.4996625975512316  0.5000135952370722  0.4306700234480400   T   T   T
  0.3992638065372250  0.5002334407077869  0.5011381560148797   T   T   T
  0.4995956590401464  0.4010175554699638  0.5024598909771498   T   T   T
  0.3997038764720482  0.6001447045421923  0.4305435452616348   T   T   T
  0.4998595987594439  0.7001632208077577  0.4307497351712507   T   T   T
  0.3994822453159370  0.7004679876949561  0.5011143965941609   T   T   T
  0.4977027683971107  0.6004524565272606  0.5017664678888388   T   T   T
  0.3998886576128297  0.8000603543016231  0.4305263438976515   T   T   T
  0.5000073446161230  0.9000366772845685  0.4305344643484412   T   T   T
  0.3998072080645595  0.8998826005846898  0.5010568374269856   T   T   T
  0.4995954682970148  0.8004482325436107  0.5011025655419874   T   T   T
  0.6001428393835372  0.0001769599047282  0.4306075401420864   T   T   T
  0.7000189102017071  0.1001432595645766  0.4309358656727447   T   T   T
  0.6004540878507602  0.0995058269336905  0.5022099988341771   T   T   T
  0.7000492127550942 -0.0002799526727139  0.5012979690362100   T   T   T
  0.6004892325786985  0.1998112351549238  0.4303183339179348   T   T   T
  0.6998275990554619  0.2993956639045733  0.4304322520598779   T   T   T
  0.6005706563415103  0.2998027913982238  0.5022682418935531   T   T   T
  0.6984554896426908  0.1994854830559172  0.5036740208349846   T   T   T
  0.5997581654117546  0.3995709722479113  0.4303328392881806   T   T   T
  0.7001342785563518  0.4999487766695243  0.4302422141402930   T   T   T
  0.5982394238947569  0.4976797653519704  0.5017920428534097   T   T   T
  0.6992353454085698  0.3980939140280505  0.5016426760968395   T   T   T
  0.5999100602172633  0.6001330932037989  0.4299080633535960   T   T   T
  0.7000942594530821  0.7003058247433186  0.4307617772178521   T   T   T
  0.5997345410172374  0.7023684140024276  0.5016443355701841   T   T   T
  0.7020374981615715  0.6018475083512131  0.5020891450446722   T   T   T
  0.6000131759846897  0.8003308535293752  0.4305568120554985   T   T   T
  0.7000788652686145  0.9001472329605686  0.4305751613245244   T   T   T
  0.6000623372921864  0.9001642953046228  0.5011062307010651   T   T   T
  0.7003632203845471  0.8005403022234011  0.5011347279849717   T   T   T
  0.8000296151146876 -0.0000012055027493  0.4306687769052067   T   T   T
  0.9000301150852534  0.0998958682888963  0.4308430489046793   T   T   T
  0.8002411873718746  0.0983471274121200  0.5021649004096955   T   T   T
  0.9003663290113751 -0.0003061352087769  0.5011690024294552   T   T   T
  0.7999247533380797  0.1997775179560218  0.4300564438378947   T   T   T
  0.9003857300521063  0.2998500511822872  0.4306094972595584   T   T   T
  0.8010587872035159  0.3007254009971934  0.5011975356877241   T   T   T
  0.9019267705765061  0.1997693427354692  0.5018049224903679   T   T   T
  0.8001161003261932  0.3999036023939431  0.4302204764178590   T   T   T
  0.9002812018837164  0.5000194379272137  0.4306584098786235   T   T   T
  0.8018718668997248  0.5004032234630674  0.5019735544561065   T   T   T
  0.9015833670455781  0.3997926891859837  0.5013446324734103   T   T   T
  0.8003042648040837  0.6000998795688107  0.4307545501696772   T   T   T
  0.9001846260911474  0.7001178598871463  0.4305467440434604   T   T   T
  0.8007007155838629  0.7007091849021477  0.5011675835009465   T   T   T
  0.9006603806011308  0.6003975558073046  0.5011546468653351   T   T   T
  0.8001168153647267  0.8001563652458487  0.4305449951509176   T   T   T
  0.9000549416927481  0.9000324286580229  0.4305487589117209   T   T   T
  0.8002534807006620  0.9000232444782689  0.5011114183692450   T   T   T
  0.9003282553067473  0.8002076125583244  0.5010403178174775   T   T   T
  0.0000000000000000  0.0000000000000000  0.2886110000000031   F   F   F
  0.1000000000000014  0.1000000000000014  0.2886110000000031   F   F   F
  0.0000000000000000  0.1000000000000014  0.3590739999999997   F   F   F
  0.1000000000000014  0.0000000000000000  0.3590739999999997   F   F   F
  0.0000000000000000  0.2000000000000028  0.2886110000000031   F   F   F
  0.1000000000000014  0.2999999999999972  0.2886110000000031   F   F   F
  0.0000000000000000  0.2999999999999972  0.3590739999999997   F   F   F
  0.1000000000000014  0.2000000000000028  0.3590739999999997   F   F   F
  0.0000000000000000  0.3999999999999986  0.2886110000000031   F   F   F
  0.1000000000000014  0.5000000000000000  0.2886110000000031   F   F   F
  0.0000000000000000  0.5000000000000000  0.3590739999999997   F   F   F
  0.1000000000000014  0.3999999999999986  0.3590739999999997   F   F   F
  0.0000000000000000  0.6000000000000014  0.2886110000000031   F   F   F
  0.1000000000000014  0.7000000000000028  0.2886110000000031   F   F   F
  0.0000000000000000  0.7000000000000028  0.3590739999999997   F   F   F
  0.1000000000000014  0.6000000000000014  0.3590739999999997   F   F   F
  0.0000000000000000  0.7999999999999972  0.2886110000000031   F   F   F
  0.1000000000000014  0.8999999999999986  0.2886110000000031   F   F   F
  0.0000000000000000  0.8999999999999986  0.3590739999999997   F   F   F
  0.1000000000000014  0.7999999999999972  0.3590739999999997   F   F   F
  0.2000000000000028  0.0000000000000000  0.2886110000000031   F   F   F
  0.2999999999999972  0.1000000000000014  0.2886110000000031   F   F   F
  0.2000000000000028  0.1000000000000014  0.3590739999999997   F   F   F
  0.2999999999999972  0.0000000000000000  0.3590739999999997   F   F   F
  0.2000000000000028  0.2000000000000028  0.2886110000000031   F   F   F
  0.2999999999999972  0.2999999999999972  0.2886110000000031   F   F   F
  0.2000000000000028  0.2999999999999972  0.3590739999999997   F   F   F
  0.2999999999999972  0.2000000000000028  0.3590739999999997   F   F   F
  0.2000000000000028  0.3999999999999986  0.2886110000000031   F   F   F
  0.2999999999999972  0.5000000000000000  0.2886110000000031   F   F   F
  0.2000000000000028  0.5000000000000000  0.3590739999999997   F   F   F
  0.2999999999999972  0.3999999999999986  0.3590739999999997   F   F   F
  0.2000000000000028  0.6000000000000014  0.2886110000000031   F   F   F
  0.2999999999999972  0.7000000000000028  0.2886110000000031   F   F   F
  0.2000000000000028  0.7000000000000028  0.3590739999999997   F   F   F
  0.2999999999999972  0.6000000000000014  0.3590739999999997   F   F   F
  0.2000000000000028  0.7999999999999972  0.2886110000000031   F   F   F
  0.2999999999999972  0.8999999999999986  0.2886110000000031   F   F   F
  0.2000000000000028  0.8999999999999986  0.3590739999999997   F   F   F
  0.2999999999999972  0.7999999999999972  0.3590739999999997   F   F   F
  0.3999999999999986  0.0000000000000000  0.2886110000000031   F   F   F
  0.5000000000000000  0.1000000000000014  0.2886110000000031   F   F   F
  0.3999999999999986  0.1000000000000014  0.3590739999999997   F   F   F
  0.5000000000000000  0.0000000000000000  0.3590739999999997   F   F   F
  0.3999999999999986  0.2000000000000028  0.2886110000000031   F   F   F
  0.5000000000000000  0.2999999999999972  0.2886110000000031   F   F   F
  0.3999999999999986  0.2999999999999972  0.3590739999999997   F   F   F
  0.5000000000000000  0.2000000000000028  0.3590739999999997   F   F   F
  0.3999999999999986  0.3999999999999986  0.2886110000000031   F   F   F
  0.5000000000000000  0.5000000000000000  0.2886110000000031   F   F   F
  0.3999999999999986  0.5000000000000000  0.3590739999999997   F   F   F
  0.5000000000000000  0.3999999999999986  0.3590739999999997   F   F   F
  0.3999999999999986  0.6000000000000014  0.2886110000000031   F   F   F
  0.5000000000000000  0.7000000000000028  0.2886110000000031   F   F   F
  0.3999999999999986  0.7000000000000028  0.3590739999999997   F   F   F
  0.5000000000000000  0.6000000000000014  0.3590739999999997   F   F   F
  0.3999999999999986  0.7999999999999972  0.2886110000000031   F   F   F
  0.5000000000000000  0.8999999999999986  0.2886110000000031   F   F   F
  0.3999999999999986  0.8999999999999986  0.3590739999999997   F   F   F
  0.5000000000000000  0.7999999999999972  0.3590739999999997   F   F   F
  0.6000000000000014  0.0000000000000000  0.2886110000000031   F   F   F
  0.7000000000000028  0.1000000000000014  0.2886110000000031   F   F   F
  0.6000000000000014  0.1000000000000014  0.3590739999999997   F   F   F
  0.7000000000000028  0.0000000000000000  0.3590739999999997   F   F   F
  0.6000000000000014  0.2000000000000028  0.2886110000000031   F   F   F
  0.7000000000000028  0.2999999999999972  0.2886110000000031   F   F   F
  0.6000000000000014  0.2999999999999972  0.3590739999999997   F   F   F
  0.7000000000000028  0.2000000000000028  0.3590739999999997   F   F   F
  0.6000000000000014  0.3999999999999986  0.2886110000000031   F   F   F
  0.7000000000000028  0.5000000000000000  0.2886110000000031   F   F   F
  0.6000000000000014  0.5000000000000000  0.3590739999999997   F   F   F
  0.7000000000000028  0.3999999999999986  0.3590739999999997   F   F   F
  0.6000000000000014  0.6000000000000014  0.2886110000000031   F   F   F
  0.7000000000000028  0.7000000000000028  0.2886110000000031   F   F   F
  0.6000000000000014  0.7000000000000028  0.3590739999999997   F   F   F
  0.7000000000000028  0.6000000000000014  0.3590739999999997   F   F   F
  0.6000000000000014  0.7999999999999972  0.2886110000000031   F   F   F
  0.7000000000000028  0.8999999999999986  0.2886110000000031   F   F   F
  0.6000000000000014  0.8999999999999986  0.3590739999999997   F   F   F
  0.7000000000000028  0.7999999999999972  0.3590739999999997   F   F   F
  0.7999999999999972  0.0000000000000000  0.2886110000000031   F   F   F
  0.8999999999999986  0.1000000000000014  0.2886110000000031   F   F   F
  0.7999999999999972  0.1000000000000014  0.3590739999999997   F   F   F
  0.8999999999999986  0.0000000000000000  0.3590739999999997   F   F   F
  0.7999999999999972  0.2000000000000028  0.2886110000000031   F   F   F
  0.8999999999999986  0.2999999999999972  0.2886110000000031   F   F   F
  0.7999999999999972  0.2999999999999972  0.3590739999999997   F   F   F
  0.8999999999999986  0.2000000000000028  0.3590739999999997   F   F   F
  0.7999999999999972  0.3999999999999986  0.2886110000000031   F   F   F
  0.8999999999999986  0.5000000000000000  0.2886110000000031   F   F   F
  0.7999999999999972  0.5000000000000000  0.3590739999999997   F   F   F
  0.8999999999999986  0.3999999999999986  0.3590739999999997   F   F   F
  0.7999999999999972  0.6000000000000014  0.2886110000000031   F   F   F
  0.8999999999999986  0.7000000000000028  0.2886110000000031   F   F   F
  0.7999999999999972  0.7000000000000028  0.3590739999999997   F   F   F
  0.8999999999999986  0.6000000000000014  0.3590739999999997   F   F   F
  0.7999999999999972  0.7999999999999972  0.2886110000000031   F   F   F
  0.8999999999999986  0.8999999999999986  0.2886110000000031   F   F   F
  0.7999999999999972  0.8999999999999986  0.3590739999999997   F   F   F
  0.8999999999999986  0.7999999999999972  0.3590739999999997   F   F   F
  0.0002086827963880  0.9997828358979080  0.5024480873305608   T   T   T
  0.1000786923182177  0.0997507067205764  0.5024725893272969   T   T   T
  0.0000640759957850  0.0999854640968751  0.4302809312132258   T   T   T
  0.1000442574447507 -0.0000224138585347  0.4302260973412873   T   T   T
  0.0006356355064501  0.1998294489656963  0.5024587305985169   T   T   T
  0.1001532430738594  0.3000365041759115  0.5023972781422772   T   T   T
  0.0002544717077949  0.2999504699518395  0.4301312879503813   T   T   T
  0.1000854286412785  0.1999347733107656  0.4302410646737122   T   T   T
  0.0005193532167031  0.4001235848078356  0.5023942591923423   T   T   T
  0.1000898058533197  0.5001885885144524  0.5024464594678036   T   T   T
  0.0000749445280721  0.5000276340845951  0.4302518496528739   T   T   T
  0.1000920343578709  0.4000221530494960  0.4302211679554130   T   T   T
  0.0001881619672476  0.6001628455772041  0.5024621912221457   T   T   T
  0.1000134999476262  0.7001083940570870  0.5024526568267939   T   T   T
  0.0000324571897453  0.7000161217796076  0.4302341636867025   T   T   T
  0.1000110861300895  0.6000519941443652  0.4302357790847521   T   T   T
  0.0001501452400967  0.8000278173741957  0.5024513981875143   T   T   T
  0.1000366891616969  0.8999121392507643  0.5024274506319897   T   T   T
  0.0000499655942519  0.8999835670007590  0.4302214337095711   T   T   T
  0.1000128446773675  0.8000090737580754  0.4302185242527906   T   T   T
  0.1998948371045675 -0.0001963132098318  0.5024469648450124   T   T   T
  0.2997710237369409  0.0997779038441026  0.5026627476346857   T   T   T
  0.2000814236509182  0.1000440264838448  0.4303044783220549   T   T   T
  0.3000228950806728  0.0000153490798517  0.4302859485573492   T   T   T
  0.1995711369626265  0.1998608083542203  0.5025564780392308   T   T   T
  0.2995687097086934  0.2999356564109950  0.5025624322488792   T   T   T
  0.2000637779354662  0.2998798299758386  0.4302937038389453   T   T   T
  0.3005588614131126  0.1999586971153034  0.4308736440815883   T   T   T
  0.1998621439203430  0.4001457013769888  0.5024314153776512   T   T   T
  0.2996301011579214  0.5002454593993323  0.5024103499685968   T   T   T
  0.1999722680511549  0.5000456726883020  0.4302302116210708   T   T   T
  0.2999630716972213  0.3999485357453930  0.4302848681890152   T   T   T
  0.1998907743436542  0.6001867154738643  0.5024471306759724   T   T   T
  0.2997940981476058  0.7001917997232994  0.5024467841281114   T   T   T
  0.1999542066320042  0.7000531908659553  0.4302285715699109   T   T   T
  0.2998877809047276  0.6001161433991997  0.4302266274012594   T   T   T
  0.1998910723777114  0.8000293141879760  0.5024526097904750   T   T   T
  0.2997946041319171  0.8998996635688880  0.5024587171911177   T   T   T
  0.1999908165048582  0.8999968128640017  0.4302200299359675   T   T   T
  0.2999415107605772  0.8000098979099399  0.4302341933105521   T   T   T
  0.3997365415763730  0.9994377919212351  0.5024775240590779   T   T   T
  0.4995921372179067  0.0991894493536054  0.5017962435531358   T   T   T
  0.3997820338105256  0.1005786609290112  0.4308182608660321   T   T   T
  0.4998012677285159 -0.0001399509893285  0.4301967048718646   T   T   T
  0.3982826130720513  0.1992557190913886  0.5064311631265848   T   T   T
  0.4991021656915153  0.2999865074206978  0.5020057234906247   T   T   T
  0.3998573468631986  0.2993226225879747  0.4310005067701266   T   T   T
  0.4988723568180732  0.2000805758203386  0.4307652518841008   T   T   T
  0.3993741152930425  0.4005912206280386  0.5022211728468380   T   T   T
  0.4992634012573748  0.5006371744358845  0.5016564741526814   T   T   T
  0.3997691279730545  0.5002630017637358  0.4301792593264616   T   T   T
  0.4996115906531272  0.4000339703309828  0.4302673911233114   T   T   T
  0.3993257907864744  0.6003099982566599  0.5024267365169713   T   T   T
  0.4997991635188849  0.7002790576339406  0.5025081396082776   T   T   T
  0.3999774399303935  0.7000227216718348  0.4302815028365826   T   T   T
  0.5004437797418618  0.6002001739316550  0.4306807455996701   T   T   T
  0.3997897938704418  0.8001048809000305  0.5024538073176922   T   T   T
  0.4998694170758181  0.8999342361499537  0.5024159748212228   T   T   T
  0.3999263698203808  0.8999303443353652  0.4302309265024251   T   T   T
  0.5000483201490369  0.7999608789260680  0.4302866062030636   T   T   T
  0.6000296710237067  0.9997172969216851  0.5023993787965763   T   T   T
  0.7004597130093120  0.0994052970447728  0.5021283827974092   T   T   T
  0.5999731874630551  0.0997715363266557  0.4301203007768150   T   T   T
  0.7001852555551853 -0.0000773541761286  0.4302942151334450   T   T   T
  0.6001918237130663  0.1996839957116565  0.4996005696280997   T   T   T
  0.7001036209156004  0.2995279089212023  0.5000417742915578   T   T   T
  0.5995762382133704  0.2999242422746672  0.4298772879574349   T   T   T
  0.7010333549272458  0.1997459693170516  0.4304124725141859   T   T   T
  0.5997943374603173  0.3999239099636833  0.5001486268700602   T   T   T
  0.7006224658902975  0.5013172684021894  0.5029323186381880   T   T   T
  0.6003357064280649  0.5008310734383464  0.4308460057898651   T   T   T
  0.7004668201011616  0.4005125307287784  0.4304083140587499   T   T   T
  0.5995954777667105  0.6017466154207702  0.5045708143554871   T   T   T
  0.7001142275181830  0.7005004631197133  0.5025171789906041   T   T   T
  0.6000678984585134  0.6995906102092410  0.4307379136666080   T   T   T
  0.6995966164099268  0.5998605962417317  0.4310560091890995   T   T   T
  0.5999613315396725  0.8004677124468750  0.5024975420043994   T   T   T
  0.7001515633575714  0.8999191664592018  0.5024440749772758   T   T   T
  0.6000084639872032  0.9000106088134150  0.4302463259291288   T   T   T
  0.6999776069888805  0.7999677826685913  0.4302930733608036   T   T   T
  0.8003288676114435  0.9995070977129712  0.5025167364797813   T   T   T
  0.9004369974728917  0.0997472749008840  0.5025814500726219   T   T   T
  0.8002828185237907  0.1003782440345605  0.4308125300998693   T   T   T
  0.9000532385967162 -0.0000309535716629  0.4302876220894160   T   T   T
  0.8013283842450881  0.1990641074864083  0.5053517854117515   T   T   T
  0.9011581347969637  0.2999741832409334  0.5016598712721505   T   T   T
  0.8004200020437462  0.2997071132419332  0.4305428723735680   T   T   T
  0.8997112517213983  0.1998831715113610  0.4306761989807486   T   T   T
  0.8010997167868230  0.4001024372902928  0.5028681850478816   T   T   T
  0.9005966230196834  0.5000269023347436  0.5025202597081920   T   T   T
  0.7998728037752733  0.4999375624633450  0.4307876997271642   T   T   T
  0.8999285665229749  0.4001209882294093  0.4303700710064327   T   T   T
  0.8006377013960302  0.6003096915249964  0.5026168491018700   T   T   T
  0.9002666874654593  0.7001870886843787  0.5024571991442399   T   T   T
  0.7999853642658911  0.6999204798594381  0.4303443036650738   T   T   T
  0.9000355702369961  0.5999798480844822  0.4303115172772148   T   T   T
  0.8002462587265720  0.8001084192276463  0.5024583371541794   T   T   T
  0.9002469929820075  0.8998922425094978  0.5024504972727331   T   T   T
  0.8000831063929583  0.8999452365981766  0.4302507909466931   T   T   T
  0.9000492665681701  0.7999706249995051  0.4302390612605712   T   T   T
  0.0000000000000000  0.0000000000000000  0.3590739999999997   F   F   F
  0.1000000000000014  0.1000000000000014  0.3590739999999997   F   F   F
  0.0000000000000000  0.1000000000000014  0.2886110000000031   F   F   F
  0.1000000000000014  0.0000000000000000  0.2886110000000031   F   F   F
  0.0000000000000000  0.2000000000000028  0.3590739999999997   F   F   F
  0.1000000000000014  0.2999999999999972  0.3590739999999997   F   F   F
  0.0000000000000000  0.2999999999999972  0.2886110000000031   F   F   F
  0.1000000000000014  0.2000000000000028  0.2886110000000031   F   F   F
  0.0000000000000000  0.3999999999999986  0.3590739999999997   F   F   F
  0.1000000000000014  0.5000000000000000  0.3590739999999997   F   F   F
  0.0000000000000000  0.5000000000000000  0.2886110000000031   F   F   F
  0.1000000000000014  0.3999999999999986  0.2886110000000031   F   F   F
  0.0000000000000000  0.6000000000000014  0.3590739999999997   F   F   F
  0.1000000000000014  0.7000000000000028  0.3590739999999997   F   F   F
  0.0000000000000000  0.7000000000000028  0.2886110000000031   F   F   F
  0.1000000000000014  0.6000000000000014  0.2886110000000031   F   F   F
  0.0000000000000000  0.7999999999999972  0.3590739999999997   F   F   F
  0.1000000000000014  0.8999999999999986  0.3590739999999997   F   F   F
  0.0000000000000000  0.8999999999999986  0.2886110000000031   F   F   F
  0.1000000000000014  0.7999999999999972  0.2886110000000031   F   F   F
  0.2000000000000028  0.0000000000000000  0.3590739999999997   F   F   F
  0.2999999999999972  0.1000000000000014  0.3590739999999997   F   F   F
  0.2000000000000028  0.1000000000000014  0.2886110000000031   F   F   F
  0.2999999999999972  0.0000000000000000  0.2886110000000031   F   F   F
  0.2000000000000028  0.2000000000000028  0.3590739999999997   F   F   F
  0.2999999999999972  0.2999999999999972  0.3590739999999997   F   F   F
  0.2000000000000028  0.2999999999999972  0.2886110000000031   F   F   F
  0.2999999999999972  0.2000000000000028  0.2886110000000031   F   F   F
  0.2000000000000028  0.3999999999999986  0.3590739999999997   F   F   F
  0.2999999999999972  0.5000000000000000  0.3590739999999997   F   F   F
  0.2000000000000028  0.5000000000000000  0.2886110000000031   F   F   F
  0.2999999999999972  0.3999999999999986  0.2886110000000031   F   F   F
  0.2000000000000028  0.6000000000000014  0.3590739999999997   F   F   F
  0.2999999999999972  0.7000000000000028  0.3590739999999997   F   F   F
  0.2000000000000028  0.7000000000000028  0.2886110000000031   F   F   F
  0.2999999999999972  0.6000000000000014  0.2886110000000031   F   F   F
  0.2000000000000028  0.7999999999999972  0.3590739999999997   F   F   F
  0.2999999999999972  0.8999999999999986  0.3590739999999997   F   F   F
  0.2000000000000028  0.8999999999999986  0.2886110000000031   F   F   F
  0.2999999999999972  0.7999999999999972  0.2886110000000031   F   F   F
  0.3999999999999986  0.0000000000000000  0.3590739999999997   F   F   F
  0.5000000000000000  0.1000000000000014  0.3590739999999997   F   F   F
  0.3999999999999986  0.1000000000000014  0.2886110000000031   F   F   F
  0.5000000000000000  0.0000000000000000  0.2886110000000031   F   F   F
  0.3999999999999986  0.2000000000000028  0.3590739999999997   F   F   F
  0.5000000000000000  0.2999999999999972  0.3590739999999997   F   F   F
  0.3999999999999986  0.2999999999999972  0.2886110000000031   F   F   F
  0.5000000000000000  0.2000000000000028  0.2886110000000031   F   F   F
  0.3999999999999986  0.3999999999999986  0.3590739999999997   F   F   F
  0.5000000000000000  0.5000000000000000  0.3590739999999997   F   F   F
  0.3999999999999986  0.5000000000000000  0.2886110000000031   F   F   F
  0.5000000000000000  0.3999999999999986  0.2886110000000031   F   F   F
  0.3999999999999986  0.6000000000000014  0.3590739999999997   F   F   F
  0.5000000000000000  0.7000000000000028  0.3590739999999997   F   F   F
  0.3999999999999986  0.7000000000000028  0.2886110000000031   F   F   F
  0.5000000000000000  0.6000000000000014  0.2886110000000031   F   F   F
  0.3999999999999986  0.7999999999999972  0.3590739999999997   F   F   F
  0.5000000000000000  0.8999999999999986  0.3590739999999997   F   F   F
  0.3999999999999986  0.8999999999999986  0.2886110000000031   F   F   F
  0.5000000000000000  0.7999999999999972  0.2886110000000031   F   F   F
  0.6000000000000014  0.0000000000000000  0.3590739999999997   F   F   F
  0.7000000000000028  0.1000000000000014  0.3590739999999997   F   F   F
  0.6000000000000014  0.1000000000000014  0.2886110000000031   F   F   F
  0.7000000000000028  0.0000000000000000  0.2886110000000031   F   F   F
  0.6000000000000014  0.2000000000000028  0.3590739999999997   F   F   F
  0.7000000000000028  0.2999999999999972  0.3590739999999997   F   F   F
  0.6000000000000014  0.2999999999999972  0.2886110000000031   F   F   F
  0.7000000000000028  0.2000000000000028  0.2886110000000031   F   F   F
  0.6000000000000014  0.3999999999999986  0.3590739999999997   F   F   F
  0.7000000000000028  0.5000000000000000  0.3590739999999997   F   F   F
  0.6000000000000014  0.5000000000000000  0.2886110000000031   F   F   F
  0.7000000000000028  0.3999999999999986  0.2886110000000031   F   F   F
  0.6000000000000014  0.6000000000000014  0.3590739999999997   F   F   F
  0.7000000000000028  0.7000000000000028  0.3590739999999997   F   F   F
  0.6000000000000014  0.7000000000000028  0.2886110000000031   F   F   F
  0.7000000000000028  0.6000000000000014  0.2886110000000031   F   F   F
  0.6000000000000014  0.7999999999999972  0.3590739999999997   F   F   F
  0.7000000000000028  0.8999999999999986  0.3590739999999997   F   F   F
  0.6000000000000014  0.8999999999999986  0.2886110000000031   F   F   F
  0.7000000000000028  0.7999999999999972  0.2886110000000031   F   F   F
  0.7999999999999972  0.0000000000000000  0.3590739999999997   F   F   F
  0.8999999999999986  0.1000000000000014  0.3590739999999997   F   F   F
  0.7999999999999972  0.1000000000000014  0.2886110000000031   F   F   F
  0.8999999999999986  0.0000000000000000  0.2886110000000031   F   F   F
  0.7999999999999972  0.2000000000000028  0.3590739999999997   F   F   F
  0.8999999999999986  0.2999999999999972  0.3590739999999997   F   F   F