Mg  O                                   
   1.0000000000000000     
    21.1388521970183838    0.0000000000000000    0.0000000000000000
     0.0000000000000000   21.1388521970183838    0.0000000000000000
     0.0000000000000000    0.0000000000000000   30.0000000000000000
   Au   Mg   O 
    20   200   200
Selective dynamics
Direct
  0.4212040987855522  0.2274618779609423  0.5798140686552760   T   T   T
  0.5509810289986884  0.2327488753098931  0.6036114489377721   T   T   T
  0.6741976294718163  0.2282470156623973  0.6167753230224381   T   T   T
  0.8010554135387480  0.2601459101066281  0.6092610277353158   T   T   T
  0.4829049188700702  0.3464906269962831  0.5928839852940858   T   T   T
  0.6221717032003247  0.3445667963103091  0.5999367856701987   T   T   T
  0.7553258373907709  0.3774271071159628  0.5939155126409978   T   T   T
  0.5479538564153362  0.4537348549973336  0.6085694620814340   T   T   T
  0.6823474963121262  0.4821997257114218  0.5809585904227836   T   T   T
  0.5931260591483193  0.5845875175610211  0.5771806730484496   T   T   T
  0.4520776518705289  0.2594002119301262  0.6622264187278994   T   T   T
  0.5500244321116070  0.2538108839190163  0.7187512501066589   T   T   T
  0.6770935304408288  0.2266081512021469  0.7143040199405962   T   T   T
  0.7602881369693014  0.1605640690862183  0.6644238838078023   T   T   T
  0.5222634878304684  0.3697742673197272  0.6802388122331119   T   T   T
  0.6379341286245404  0.3482423528470380  0.7266498586903973   T   T   T
  0.7439568535293101  0.3230914448835582  0.6775399480559294   T   T   T
  0.5842424650762406  0.4650663464847065  0.7275845732652279   T   T   T
  0.6750289468739418  0.4355803671542439  0.6628693314334753   T   T   T
  0.6009082058174730  0.5458610351803953  0.6586906351841516   T   T   T
  0.9999540792990930  0.0001221493227082  0.4305118377891490   T   T   T
  0.0998038979336908  0.0999375397584739  0.4305389591682600   T   T   T
  0.9999826907877468  0.0998866734929774  0.5010985648942765   T   T   T
  0.0998438694799934 -0.0000531407867396  0.5010511601531401   T   T   T
  0.9998648184343457  0.2000021501059128  0.4306056061434658   T   T   T
  0.0998357007981782  0.3000171260555747  0.4305743198690510   T   T   T
  0.0002085440824520  0.2998284302049842  0.5011404697966049   T   T   T
  0.0997073579242716  0.1999273067904959  0.5010936253929119   T   T   T
  0.9999549738915621  0.3999392290622006  0.4307142047387740   T   T   T
  0.0999949068435366  0.5000190561044733  0.4305502196788108   T   T   T
  0.0003386621233938  0.5001212193589976  0.5011708561507352   T   T   T
  0.0999856353793870  0.4001091729033670  0.5010373677589992   T   T   T
  0.0000946946638241  0.6000793604300149  0.4305774897849959   T   T   T
  0.0999984551201095  0.7001026100362379  0.4305606268730222   T   T   T
  0.0002615570825504  0.7002872039559724  0.5010642405867314   T   T   T
  0.1000706289550073  0.6002588886125825  0.5010550417257323   T   T   T
  0.0000124059406140  0.8001095574021760  0.4305240025399679   T   T   T
  0.0999388678450499  0.9000815781859196  0.4305170543369573   T   T   T
  0.0000444551000910  0.9002042102045935  0.5010396094685651   T   T   T
  0.0999958174828618  0.8001641147403644  0.5010070548515442   T   T   T
  0.1998595764632393  0.0000282266306763  0.4305191491894653   T   T   T
  0.2999823317541723  0.1000130484360956  0.4309209419180217   T   T   T
  0.1996037058848873  0.0996332308041570  0.5011375853246661   T   T   T
  0.2995232543560760  0.9997313619309143  0.5011066138527200   T   T   T
  0.1997403453454397  0.1999368005505640  0.4305959926752855   T   T   T
  0.2997908221796134  0.3000763594016438  0.4307292548046864   T   T   T
  0.1994925119906696  0.3002633854364840  0.5010147115250951   T   T   T
  0.2978583208296929  0.2000248428589608  0.5018562475639951   T   T   T
  0.1998317557254211  0.4000813608181814  0.4305105500054464   T   T   T
  0.2997430314182317  0.5001386256750202  0.4305102223573888   T   T   T
  0.1997162924454622  0.5002117678565441  0.5010239633657162   T   T   T
  0.2990179343362013  0.4005526538204102  0.5010133877836788   T   T   T
  0.1998969368384520  0.6001204622234179  0.4305368509847498   T   T   T
  0.2997242349121080  0.7002048502931050  0.4305428843835259   T   T   T
  0.1998070957801175  0.7002522847998213  0.5010128408577920   T   T   T
  0.2993538615066560  0.6002727994667652  0.5010926895239544   T   T   T
  0.1999299559151969  0.8000880735448872  0.4305265838928150   T   T   T
  0.2998684073147607  0.8999995849889987  0.4305515320592823   T   T   T
  0.1997779161217837  0.9000709865575809  0.5010403367854060   T   T   T
  0.2995769808116590  0.8002982746284544  0.5009892277932447   T   T   T
  0.3999170513474205 -0.0000261605499255  0.4306148842243618   T   T   T
  0.5001113770445798  0.1000920827954136  0.4309077748464653   T   T   T
  0.3998598200657101  0.0980203761671747  0.5019544389133648   T   T   T
  0.5001557618482474  0.9997500176190213  0.5010905521344813   T   T   T
  0.4002328180084566  0.2001693310540643  0.4294339594180876   T   T   T
  0.5002853020173412  0.3000855879340806  0.4305566117907828   T   T   T
  0.3992115393962570  0.3032283127031299  0.5014010427849640   T   T   T
  0.5028045500122023  0.1992783564349237  0.5024562523552187   T   T   T
  0.3999527689141009  0.4003802768858711  0.4303609293794577   T   T   T
  0.4993888074328035  0.5000478636240602  0.4304171904552715   T   T   T
  0.3990540932250743  0.5002391038008563  0.5011783666393133   T   T   T
  0.4995576261524670  0.4006454948425679  0.5024875306196913   T   T   T
  0.3994170336979443  0.6001919261665075  0.4304042916538445   T   T   T
  0.4996515730335979  0.7003696952333585  0.4306875290332466   T   T   T
  0.3990580141413028  0.7007578165547590  0.5011287286494766   T   T   T
  0.4967707487091318  0.6008411636766247  0.5014478440085730   T   T   T
  0.3997711807842269  0.8001761726842507  0.4305074587618008   T   T   T
  0.4999153623599075  0.9001536265387534  0.4305427481606886   T   T   T
  0.3997098537162201  0.9000826180610593  0.5010349143743994   T   T   T
  0.4993889006888541  0.8007199226238958  0.5010611216173313   T   T   T
  0.6001410811342892  0.0001892994367630  0.4305211923085252   T   T   T
  0.7001879324514259  0.1002950317070428  0.4307707293336218   T   T   T
  0.6004988727417370  0.0995445370757856  0.5013528186075643   T   T   T
  0.7002554984108995  0.0000516255489474  0.5011552550760935   T   T   T
  0.6004968948923460  0.1999536924698440  0.4306420991304639   T   T   T
  0.7000855099327733  0.2992710666319056  0.4308458003127133   T   T   T
  0.6000956223223379  0.2989882531487582  0.5031341919868482   T   T   T
  0.6999490938728399  0.1995791426172742  0.5030024578366233   T   T   T
  0.5997058885407869  0.3990417353230092  0.4304236741682962   T   T   T
  0.6998131119047674  0.4999227115853676  0.4301906843126242   T   T   T
  0.5970734950253194  0.4977057176617227  0.5011774769022604   T   T   T
  0.6989917016594526  0.3973736208399087  0.5020383525038039   T   T   T
  0.5996144502352274  0.6003625854962001  0.4297650215556518   T   T   T
  0.7000514658647877  0.7005014108826182  0.4307387824057345   T   T   T
  0.5994257291103288  0.7028904832848799  0.5014633953255407   T   T   T
  0.7018395525546950  0.6023744858377140  0.5018606392883743   T   T   T
  0.5998987312645186  0.8005055325882565  0.4305343706128244   T   T   T
  0.7000901040973223  0.9003098450219545  0.4305826050980532   T   T   T
  0.5999932369447977  0.9004687598123100  0.5010483788139123   T   T   T
  0.7003429950530610  0.8008664922444594  0.5011437836195215   T   T   T
  0.8000623247406299  0.0001927764687181  0.4305946077079525   T   T   T
  0.8999187234441863  0.1000257669200615  0.4306283587896189   T   T   T
  0.8001019466791062  0.0996853465273263  0.5015131423055555   T   T   T
  0.9001702669097167  0.0000216238185707  0.5010714130337192   T   T   T
  0.7997886921555547  0.2001299893418595  0.4309404140848071   T   T   T
  0.8996429134418159  0.2999060061449967  0.4309803856037377   T   T   T
  0.8002327663908397  0.2988285405079302  0.5039771383861871   T   T   T
  0.9003186124098452  0.1997164182070878  0.5014673464872917   T   T   T
  0.7998542388381018  0.3994730236879350  0.4308011240298612   T   T   T
  0.9000757946381668  0.4999270889160906  0.4308730679770694   T   T   T
  0.8016076658746466  0.5004611936717857  0.5023950300495527   T   T   T
  0.9009693841155130  0.3996852165538897  0.5019305935337762   T   T   T
  0.8002890316323408  0.6000887610951449  0.4308341025628448   T   T   T
  0.9001642824722037  0.7002018781349055  0.4305929971447160   T   T   T
  0.8007619607078514  0.7009338205962933  0.5012771469146547   T   T   T
  0.9006326851152237  0.6004743741769958  0.5012979505427996   T   T   T
  0.8001639722330937  0.8002604843335752  0.4305662714790358   T   T   T
  0.9000839220494093  0.9001439089195447  0.4305488422312538   T   T   T
  0.8002876874473452  0.9003859405314234  0.5010802820757635   T   T   T
  0.9003171146189756  0.8004308645652902  0.5010579834707988   T   T   T
  0.0000000000000000  0.0000000000000000  0.2886110000000031   F   F   F
  0.1000000000000014  0.1000000000000014  0.2886110000000031   F   F   F
  0.0000000000000000  0.1000000000000014  0.3590739999999997   F   F   F
  0.1000000000000014  0.0000000000000000  0.3590739999999997   F   F   F
  0.0000000000000000  0.2000000000000028  0.2886110000000031   F   F   F
  0.1000000000000014  0.2999999999999972  0.2886110000000031   F   F   F
  0.0000000000000000  0.2999999999999972  0.3590739999999997   F   F   F
  0.1000000000000014  0.2000000000000028  0.3590739999999997   F   F   F
  0.0000000000000000  0.3999999999999986  0.2886110000000031   F   F   F
  0.1000000000000014  0.5000000000000000  0.2886110000000031   F   F   F
  0.0000000000000000  0.5000000000000000  0.3590739999999997   F   F   F
  0.1000000000000014  0.3999999999999986  0.3590739999999997   F   F   F
  0.0000000000000000  0.6000000000000014  0.2886110000000031   F   F   F
  0.1000000000000014  0.7000000000000028  0.2886110000000031   F   F   F
  0.0000000000000000  0.7000000000000028  0.3590739999999997   F   F   F
  0.1000000000000014  0.6000000000000014  0.3590739999999997   F   F   F
  0.0000000000000000  0.7999999999999972  0.2886110000000031   F   F   F
  0.1000000000000014  0.8999999999999986  0.2886110000000031   F   F   F
  0.0000000000000000  0.8999999999999986  0.3590739999999997   F   F   F
  0.1000000000000014  0.7999999999999972  0.3590739999999997   F   F   F
  0.2000000000000028  0.0000000000000000  0.2886110000000031   F   F   F
  0.2999999999999972  0.1000000000000014  0.2886110000000031   F   F   F
  0.2000000000000028  0.1000000000000014  0.3590739999999997   F   F   F
  0.2999999999999972  0.0000000000000000  0.3590739999999997   F   F   F
  0.2000000000000028  0.2000000000000028  0.2886110000000031   F   F   F
  0.2999999999999972  0.2999999999999972  0.2886110000000031   F   F   F
  0.2000000000000028  0.2999999999999972  0.3590739999999997   F   F   F
  0.2999999999999972  0.2000000000000028  0.3590739999999997   F   F   F
  0.2000000000000028  0.3999999999999986  0.2886110000000031   F   F   F
  0.2999999999999972  0.5000000000000000  0.2886110000000031   F   F   F
  0.2000000000000028  0.5000000000000000  0.3590739999999997   F   F   F
  0.2999999999999972  0.3999999999999986  0.3590739999999997   F   F   F
  0.2000000000000028  0.6000000000000014  0.2886110000000031   F   F   F
  0.2999999999999972  0.7000000000000028  0.2886110000000031   F   F   F
  0.2000000000000028  0.7000000000000028  0.3590739999999997   F   F   F
  0.2999999999999972  0.6000000000000014  0.3590739999999997   F   F   F
  0.2000000000000028  0.7999999999999972  0.2886110000000031   F   F   F
  0.2999999999999972  0.8999999999999986  0.2886110000000031   F   F   F
  0.2000000000000028  0.8999999999999986  0.3590739999999997   F   F   F
  0.2999999999999972  0.7999999999999972  0.3590739999999997   F   F   F
  0.3999999999999986  0.0000000000000000  0.2886110000000031   F   F   F
  0.5000000000000000  0.1000000000000014  0.2886110000000031   F   F   F
  0.3999999999999986  0.1000000000000014  0.3590739999999997   F   F   F
  0.5000000000000000  0.0000000000000000  0.3590739999999997   F   F   F
  0.3999999999999986  0.2000000000000028  0.2886110000000031   F   F   F
  0.5000000000000000  0.2999999999999972  0.2886110000000031   F   F   F
  0.3999999999999986  0.2999999999999972  0.3590739999999997   F   F   F
  0.5000000000000000  0.2000000000000028  0.3590739999999997   F   F   F
  0.3999999999999986  0.3999999999999986  0.2886110000000031   F   F   F
  0.5000000000000000  0.5000000000000000  0.2886110000000031   F   F   F
  0.3999999999999986  0.5000000000000000  0.3590739999999997   F   F   F
  0.5000000000000000  0.3999999999999986  0.3590739999999997   F   F   F
  0.3999999999999986  0.6000000000000014  0.2886110000000031   F   F   F
  0.5000000000000000  0.7000000000000028  0.2886110000000031   F   F   F
  0.3999999999999986  0.7000000000000028  0.3590739999999997   F   F   F
  0.5000000000000000  0.6000000000000014  0.3590739999999997   F   F   F
  0.3999999999999986  0.7999999999999972  0.2886110000000031   F   F   F
  0.5000000000000000  0.8999999999999986  0.2886110000000031   F   F   F
  0.3999999999999986  0.8999999999999986  0.3590739999999997   F   F   F
  0.5000000000000000  0.7999999999999972  0.3590739999999997   F   F   F
  0.6000000000000014  0.0000000000000000  0.2886110000000031   F   F   F
  0.7000000000000028  0.1000000000000014  0.2886110000000031   F   F   F
  0.6000000000000014  0.1000000000000014  0.3590739999999997   F   F   F
  0.7000000000000028  0.0000000000000000  0.3590739999999997   F   F   F
  0.6000000000000014  0.2000000000000028  0.2886110000000031   F   F   F
  0.7000000000000028  0.2999999999999972  0.2886110000000031   F   F   F
  0.6000000000000014  0.2999999999999972  0.3590739999999997   F   F   F
  0.7000000000000028  0.2000000000000028  0.3590739999999997   F   F   F
  0.6000000000000014  0.3999999999999986  0.2886110000000031   F   F   F
  0.7000000000000028  0.5000000000000000  0.2886110000000031   F   F   F
  0.6000000000000014  0.5000000000000000  0.3590739999999997   F   F   F
  0.7000000000000028  0.3999999999999986  0.3590739999999997   F   F   F
  0.6000000000000014  0.6000000000000014  0.2886110000000031   F   F   F
  0.7000000000000028  0.7000000000000028  0.2886110000000031   F   F   F
  0.6000000000000014  0.7000000000000028  0.3590739999999997   F   F   F
  0.7000000000000028  0.6000000000000014  0.3590739999999997   F   F   F
  0.6000000000000014  0.7999999999999972  0.2886110000000031   F   F   F
  0.7000000000000028  0.8999999999999986  0.2886110000000031   F   F   F
  0.6000000000000014  0.8999999999999986  0.3590739999999997   F   F   F
  0.7000000000000028  0.7999999999999972  0.3590739999999997   F   F   F
  0.7999999999999972  0.0000000000000000  0.2886110000000031   F   F   F
  0.8999999999999986  0.1000000000000014  0.2886110000000031   F   F   F
  0.7999999999999972  0.1000000000000014  0.3590739999999997   F   F   F
  0.8999999999999986  0.0000000000000000  0.3590739999999997   F   F   F
  0.7999999999999972  0.2000000000000028  0.2886110000000031   F   F   F
  0.8999999999999986  0.2999999999999972  0.2886110000000031   F   F   F
  0.7999999999999972  0.2999999999999972  0.3590739999999997   F   F   F
  0.8999999999999986  0.2000000000000028  0.3590739999999997   F   F   F
  0.7999999999999972  0.3999999999999986  0.2886110000000031   F   F   F
  0.8999999999999986  0.5000000000000000  0.2886110000000031   F   F   F
  0.7999999999999972  0.5000000000000000  0.3590739999999997   F   F   F
  0.8999999999999986  0.3999999999999986  0.3590739999999997   F   F   F
  0.7999999999999972  0.6000000000000014  0.2886110000000031   F   F   F
  0.8999999999999986  0.7000000000000028  0.2886110000000031   F   F   F
  0.7999999999999972  0.7000000000000028  0.3590739999999997   F   F   F
  0.8999999999999986  0.6000000000000014  0.3590739999999997   F   F   F
  0.7999999999999972  0.7999999999999972  0.2886110000000031   F   F   F
  0.8999999999999986  0.8999999999999986  0.2886110000000031   F   F   F
  0.7999999999999972  0.8999999999999986  0.3590739999999997   F   F   F
  0.8999999999999986  0.7999999999999972  0.3590739999999997   F   F   F
  0.0001903312287589  0.9999153406580287  0.5024572819483635   T   T   T
  0.0999979577448055  0.0999032799451026  0.5025356519168578   T   T   T
  0.0001617342587724  0.1000040545661787  0.4302845420642537   T   T   T
  0.1000534795863540  0.0001392380311323  0.4302718271448426   T   T   T
  0.0002185732658711  0.1999103690198971  0.5025263015504108   T   T   T
  0.0999998320609580  0.2999767907054946  0.5024390281911588   T   T   T
  0.9999563915328812  0.3001021810213188  0.4302941420893820   T   T   T
  0.0999906186769434  0.1999363345364266  0.4302702119749813   T   T   T
  0.0002194148374799  0.4001723149666920  0.5026223310762369   T   T   T
  0.1000319883282954  0.5001897163848019  0.5024827464220951   T   T   T
  0.9999336661675593  0.5000821378967135  0.4303534668803328   T   T   T
  0.0999874806442558  0.4000069209632712  0.4302127969532447   T   T   T
  0.0001264411167306  0.6002383366815939  0.5025375775984001   T   T   T
  0.0999586521908020  0.7002227069913335  0.5024610198414888   T   T   T
  0.9999172663377666  0.7000407598073557  0.4303038657272347   T   T   T
  0.0999291839886653  0.6000666578242634  0.4302282481807267   T   T   T
  0.0001132313802315  0.8001072266234504  0.5024920071428332   T   T   T
  0.0999958686468474  0.9001465168220263  0.5024872285493034   T   T   T
  0.0000104103459617  0.8999914554001921  0.4302447312020129   T   T   T
  0.0999233393932459  0.8000825773015520  0.4302415511148341   T   T   T
  0.1998560662765496  0.0000134097775218  0.5025272903900174   T   T   T
  0.2998518101920838  0.1000262783811261  0.5027697408652327   T   T   T
  0.1999984591681958  0.1001272574277686  0.4303700529541938   T   T   T
  0.2999912587216870  0.0001015562035716  0.4303229693526939   T   T   T
  0.1994697631351243  0.1999062679765854  0.5026096528275352   T   T   T
  0.2994418263927762  0.3000629634898990  0.5023023517400598   T   T   T
  0.1999541325473447  0.2998313134618374  0.4302027428469420   T   T   T
  0.3007420401619172  0.1999917674363920  0.4309864112105449   T   T   T
  0.1997900663836901  0.4001173992253338  0.5023930177739762   T   T   T
  0.2994949555526629  0.5002317025987780  0.5023922338722918   T   T   T
  0.1999300340281977  0.5000522477434506  0.4302146575963766   T   T   T
  0.2998722030449305  0.4000589082600114  0.4301679238193959   T   T   T
  0.1998150851233322  0.6002421447548901  0.5024734362652586   T   T   T
  0.2996201411107199  0.7003583604216421  0.5024831443745029   T   T   T
  0.1999040953590784  0.7000617388788951  0.4302530346137690   T   T   T
  0.2997320252056381  0.6001552528125033  0.4302284403456143   T   T   T
  0.1998262733467437  0.8001810944278824  0.5024715915545208   T   T   T
  0.2997123528273395  0.9000560415303775  0.5024746914221392   T   T   T
  0.2000037767306116  0.9001407577089452  0.4302265689783786   T   T   T
  0.2999639723332505  0.8000851991813728  0.4302535261540564   T   T   T
  0.3996803209328386  0.9995382937686520  0.5025775283245520   T   T   T
  0.4995617040903435  0.0996123351243118  0.5024577449639939   T   T   T
  0.3997746730602164  0.1008715118001046  0.4310680755747410   T   T   T
  0.4996883056509875  0.0000325976365981  0.4302728471602840   T   T   T
  0.3988097616740042  0.1994771142139174  0.5084016201831608   T   T   T
  0.4993084854670592  0.3000731240257437  0.5007584289978204   T   T   T
  0.3996303479144906  0.2994056885395251  0.4307663511174699   T   T   T
  0.4988858671061893  0.1999234727375430  0.4309465803487381   T   T   T
  0.3989939292523640  0.4011090593202940  0.5016957430130428   T   T   T
  0.4988980530867452  0.5010165016286752  0.5012004331131978   T   T   T
  0.3995530433280528  0.5004054357886131  0.4301129378687286   T   T   T
  0.4996451130422497  0.4003920142221253  0.4300882382912126   T   T   T
  0.3988921540353883  0.6004729026442941  0.5023646578725552   T   T   T
  0.4995540041568984  0.7005574476385857  0.5024849229246532   T   T   T
  0.3998122587136913  0.7001281766381217  0.4303063328887565   T   T   T
  0.5002340101153001  0.6003837126233805  0.4306619209083046   T   T   T
  0.3996623568212576  0.8002985247677887  0.5024830923981433   T   T   T
  0.4997578772225066  0.9001060941248571  0.5024406092701474   T   T   T
  0.3999016722606338  0.8999996344721003  0.4302314524718945   T   T   T
  0.4999950063228197  0.8000970792223508  0.4302706532134114   T   T   T
  0.5999456989740013  0.9998079226836912  0.5023564958731614   T   T   T
  0.7002434347372885  0.0994424165157698  0.5023712711413447   T   T   T
  0.5998562525995997  0.0997755906077856  0.4301405663695808   T   T   T
  0.7000193185009610 -0.0000606870133807  0.4302738629153076   T   T   T
  0.6004208620542707  0.1989397369500191  0.5008294743892348   T   T   T
  0.7001271397648885  0.2992355855184520  0.5010242135822229   T   T   T
  0.5999008499634053  0.2998302546027486  0.4299926430892287   T   T   T
  0.7003752753521386  0.1997064404995388  0.4302717574301657   T   T   T
  0.5996946901428893  0.3998752551600609  0.5002910320145841   T   T   T
  0.6995107571429504  0.5021076225442638  0.5042073237904744   T   T   T
  0.6002350067438691  0.5009385792334204  0.4309236503777173   T   T   T
  0.7002323276718528  0.4008242886636729  0.4308736559927325   T   T   T
  0.5993855362922565  0.6021951777276715  0.5038361385629794   T   T   T
  0.6998949861004564  0.7007551514946333  0.5026520087800644   T   T   T
  0.6000288699159085  0.6997995021629511  0.4307240173537626   T   T   T
  0.6994335803223987  0.5998702187261431  0.4312407589922360   T   T   T
  0.5998817341199006  0.8007653332654719  0.5025214669627002   T   T   T
  0.7001302847953357  0.9001017628337910  0.5025003199883535   T   T   T
  0.5999629802119513  0.9000654423193886  0.4301858768736791   T   T   T
  0.6999456962597482  0.8000869717152729  0.4303170789731603   T   T   T
  0.8002244587997974  0.9997671112738027  0.5024573341579888   T   T   T
  0.9003339933461251  0.0997949917368454  0.5025175896947203   T   T   T
  0.8002061882103267  0.0999732375228929  0.4304103710015113   T   T   T
  0.9001270058646069 -0.0001067678651345  0.4302481344953997   T   T   T
  0.8005034992558147  0.1994091420078775  0.5030096804701936   T   T   T
  0.9005519920849675  0.3000469149684161  0.5025878654325411   T   T   T
  0.8001539965066646  0.3003955360001058  0.4308087975341593   T   T   T
  0.9000281740991969  0.2000541769014109  0.4304297072764569   T   T   T
  0.7999986925991872  0.4005677981980446  0.5043359010488498   T   T   T
  0.9003844857428523  0.5001350585077089  0.5028376180798266   T   T   T
  0.7993619954919434  0.5000139350985273  0.4312981889119923   T   T   T
  0.8995674182995552  0.4002821783747134  0.4308103056014693   T   T   T
  0.8003893043454413  0.6004141140196900  0.5028657383260053   T   T   T
  0.9001921361206745  0.7002427093209130  0.5025793040963049   T   T   T
  0.7999294049352280  0.6999592927898890  0.4304309627155778   T   T   T
  0.8998904776902329  0.6000035861778701  0.4304383266278793   T   T   T
  0.8001811556111655  0.8002570661355373  0.5025739656287652   T   T   T
  0.9001978846224604  0.8999976550228163  0.5024869711298515   T   T   T
  0.8000435557268502  0.8999053514188944  0.4302803634388805   T   T   T
  0.8999930404359081  0.7999413619394310  0.4303002535001980   T   T   T
  0.0000000000000000  0.0000000000000000  0.3590739999999997   F   F   F
  0.1000000000000014  0.1000000000000014  0.3590739999999997   F   F   F
  0.0000000000000000  0.1000000000000014  0.2886110000000031   F   F   F
  0.1000000000000014  0.0000000000000000  0.2886110000000031   F   F   F
  0.0000000000000000  0.2000000000000028  0.3590739999999997   F   F   F
  0.1000000000000014  0.2999999999999972  0.3590739999999997   F   F   F
  0.0000000000000000  0.2999999999999972  0.2886110000000031   F   F   F
  0.1000000000000014  0.2000000000000028  0.2886110000000031   F   F   F
  0.0000000000000000  0.3999999999999986  0.3590739999999997   F   F   F
  0.1000000000000014  0.5000000000000000  0.3590739999999997   F   F   F
  0.0000000000000000  0.5000000000000000  0.2886110000000031   F   F   F
  0.1000000000000014  0.3999999999999986  0.2886110000000031   F   F   F
  0.0000000000000000  0.6000000000000014  0.3590739999999997   F   F   F
  0.1000000000000014  0.7000000000000028  0.3590739999999997   F   F   F
  0.0000000000000000  0.7000000000000028  0.2886110000000031   F   F   F
  0.1000000000000014  0.6000000000000014  0.2886110000000031   F   F   F
  0.0000000000000000  0.7999999999999972  0.3590739999999997   F   F   F
  0.1000000000000014  0.8999999999999986  0.3590739999999997   F   F   F
  0.0000000000000000  0.8999999999999986  0.2886110000000031   F   F   F
  0.1000000000000014  0.7999999999999972  0.2886110000000031   F   F   F
  0.2000000000000028  0.0000000000000000  0.3590739999999997   F   F   F
  0.2999999999999972  0.1000000000000014  0.3590739999999997   F   F   F
  0.2000000000000028  0.1000000000000014  0.2886110000000031   F   F   F
  0.2999999999999972  0.0000000000000000  0.2886110000000031   F   F   F
  0.2000000000000028  0.2000000000000028  0.3590739999999997   F   F   F
  0.2999999999999972  0.2999999999999972  0.3590739999999997   F   F   F
  0.2000000000000028  0.2999999999999972  0.2886110000000031   F   F   F
  0.2999999999999972  0.2000000000000028  0.2886110000000031   F   F   F
  0.2000000000000028  0.3999999999999986  0.3590739999999997   F   F   F
  0.2999999999999972  0.5000000000000000  0.3590739999999997   F   F   F
  0.2000000000000028  0.5000000000000000  0.2886110000000031   F   F   F
  0.2999999999999972  0.3999999999999986  0.2886110000000031   F   F   F
  0.2000000000000028  0.6000000000000014  0.3590739999999997   F   F   F
  0.2999999999999972  0.7000000000000028  0.3590739999999997   F   F   F
  0.2000000000000028  0.7000000000000028  0.2886110000000031   F   F   F
  0.2999999999999972  0.6000000000000014  0.2886110000000031   F   F   F
  0.2000000000000028  0.7999999999999972  0.3590739999999997   F   F   F
  0.2999999999999972  0.8999999999999986  0.3590739999999997   F   F   F
  0.2000000000000028  0.8999999999999986  0.2886110000000031   F   F   F
  0.2999999999999972  0.7999999999999972  0.2886110000000031   F   F   F
  0.3999999999999986  0.0000000000000000  0.3590739999999997   F   F   F
  0.5000000000000000  0.1000000000000014  0.3590739999999997   F   F   F
  0.3999999999999986  0.1000000000000014  0.2886110000000031   F   F   F
  0.5000000000000000  0.0000000000000000  0.2886110000000031   F   F   F
  0.3999999999999986  0.2000000000000028  0.3590739999999997   F   F   F
  0.5000000000000000  0.2999999999999972  0.3590739999999997   F   F   F
  0.3999999999999986  0.2999999999999972  0.2886110000000031   F   F   F
  0.5000000000000000  0.2000000000000028  0.2886110000000031   F   F   F
  0.3999999999999986  0.3999999999999986  0.3590739999999997   F   F   F
  0.5000000000000000  0.5000000000000000  0.3590739999999997   F   F   F
  0.3999999999999986  0.5000000000000000  0.2886110000000031   F   F   F
  0.5000000000000000  0.3999999999999986  0.2886110000000031   F   F   F
  0.3999999999999986  0.6000000000000014  0.3590739999999997   F   F   F
  0.5000000000000000  0.7000000000000028  0.3590739999999997   F   F   F
  0.3999999999999986  0.7000000000000028  0.2886110000000031   F   F   F
  0.5000000000000000  0.6000000000000014  0.2886110000000031   F   F   F
  0.3999999999999986  0.7999999999999972  0.3590739999999997   F   F   F
  0.5000000000000000  0.8999999999999986  0.3590739999999997   F   F   F
  0.3999999999999986  0.8999999999999986  0.2886110000000031   F   F   F
  0.5000000000000000  0.7999999999999972  0.2886110000000031   F   F   F
  0.6000000000000014  0.0000000000000000  0.3590739999999997   F   F   F
  0.7000000000000028  0.1000000000000014  0.3590739999999997   F   F   F
  0.6000000000000014  0.1000000000000014  0.2886110000000031   F   F   F
  0.7000000000000028  0.0000000000000000  0.2886110000000031   F   F   F
  0.6000000000000014  0.2000000000000028  0.3590739999999997   F   F   F
  0.7000000000000028  0.2999999999999972  0.3590739999999997   F   F   F
  0.6000000000000014  0.2999999999999972  0.2886110000000031   F   F   F
  0.7000000000000028  0.2000000000000028  0.2886110000000031   F   F   F
  0.6000000000000014  0.3999999999999986  0.3590739999999997   F   F   F
  0.7000000000000028  0.5000000000000000  0.3590739999999997   F   F   F
  0.6000000000000014  0.5000000000000000  0.2886110000000031   F   F   F
  0.7000000000000028  0.3999999999999986  0.2886110000000031   F   F   F
  0.6000000000000014  0.6000000000000014  0.3590739999999997   F   F   F
  0.7000000000000028  0.7000000000000028  0.3590739999999997   F   F   F
  0.6000000000000014  0.7000000000000028  0.2886110000000031   F   F   F
  0.7000000000000028  0.6000000000000014  0.2886110000000031   F   F   F
  0.6000000000000014  0.7999999999999972  0.3590739999999997   F   F   F
  0.7000000000000028  0.8999999999999986  0.3590739999999997   F   F   F
  0.6000000000000014  0.8999999999999986  0.2886110000000031   F   F   F
  0.7000000000000028  0.7999999999999972  0.2886110000000031   F   F   F
  0.7999999999999972  0.0000000000000000  0.3590739999999997   F   F   F
  0.8999999999999986  0.1000000000000014  0.3590739999999997   F   F   F
  0.7999999999999972  0.1000000000000014  0.2886110000000031   F   F   F
  0.8999999999999986  0.0000000000000000  0.2886110000000031   F   F   F
  0.7999999999999972  0.2000000000000028  0.3590739999999997   F   F   F
  0.8999999999999986  0.2999999999999972  0.3590739999999997   F   F   F