au8                                     
   1.0000000000000000     
    20.0000000000000000    0.0000000000000000    0.0000000000000000
     0.0000000000000000   20.0000000000000000    0.0000000000000000
     0.0000000000000000    0.0000000000000000   20.0000000000000000
   Au
     8
Direct
  0.0399869752003535  0.9277204520718396  0.0000000000000000
  0.0399869752003535  0.0722794979281634  0.0000000000000000
  0.1733820798009192  0.9096006051998339  0.0000000000000000
  0.1733820798009192  0.0903993948001661  0.0000000000000000
  0.2480130247996432 -0.0000000000000000  0.0722794979281634
  0.2480130247996432 -0.0000000000000000  0.9277205020718367
  0.1146179201990846 -0.0000000000000000  0.9096006051998339
  0.1146179201990846 -0.0000000000000000  0.0903993948001661

  0.00000000E+00  0.00000000E+00  0.00000000E+00
  0.00000000E+00  0.00000000E+00  0.00000000E+00
  0.00000000E+00  0.00000000E+00  0.00000000E+00
  0.00000000E+00  0.00000000E+00  0.00000000E+00
  0.00000000E+00  0.00000000E+00  0.00000000E+00
  0.00000000E+00  0.00000000E+00  0.00000000E+00
  0.00000000E+00  0.00000000E+00  0.00000000E+00
  0.00000000E+00  0.00000000E+00  0.00000000E+00
