Mg  O                                   
   1.0000000000000000     
    21.1388521970183838    0.0000000000000000    0.0000000000000000
     0.0000000000000000   21.1388521970183838    0.0000000000000000
     0.0000000000000000    0.0000000000000000   30.0000000000000000
   Au   Mg   O 
    20   200   200
Selective dynamics
Direct
  0.4978179758127455  0.4330891765664172  0.6136022390828343   T   T   T
  0.3269522100170015  0.3138929768957252  0.5790772219698348   T   T   T
  0.5577756366984120  0.5435994770981498  0.5925945153037392   T   T   T
  0.5675264847156569  0.3235065165280796  0.6222133512402298   T   T   T
  0.4487387078100220  0.0961923865094486  0.6044165007298993   T   T   T
  0.6371552707531180  0.2136945922244478  0.6196102657906017   T   T   T
  0.5096011185554712  0.2098927268206131  0.6272154709568175   T   T   T
  0.4288387319921310  0.5410609538586201  0.5928078915458579   T   T   T
  0.6855187866821379  0.5483020981475067  0.5967102656956216   T   T   T
  0.5739983874951510  0.0994958557805857  0.6121475631529296   T   T   T
  0.3702693702719713  0.4303078387113678  0.6077897773567359   T   T   T
  0.8192264449256711  0.3345734673744941  0.5924213525755834   T   T   T
  0.4391364491949425  0.3194094691043664  0.6220912671534400   T   T   T
  0.2511723189063158  0.4164375297380012  0.5815317746462677   T   T   T
  0.6947720875218902  0.3276467283723195  0.6117232331193181   T   T   T
  0.6862007140750411  0.1126267646855987  0.5752982443007941   T   T   T
  0.6258902594703367  0.4354475212185369  0.6093169736846368   T   T   T
  0.7555924897086577  0.4434744013564755  0.5964461402785169   T   T   T
  0.4045612280179793  0.2105155923815254  0.5774454950943108   T   T   T
  0.7580833867887909  0.2207493627869789  0.5844351278818971   T   T   T
  0.0000701601227737  0.9997473273187462  0.4297139124202075   T   T   T
  0.0998821958857973  0.0997814818910210  0.4297469117761746   T   T   T
  0.0001963352313379  0.0994942383592105  0.4997857176161671   T   T   T
  0.0998456389216711  0.9994258285825743  0.4997260698409204   T   T   T
 -0.0000372027304520  0.2000587228366924  0.4298496113034740   T   T   T
  0.0996793745354406  0.3001410049591657  0.4299285465418838   T   T   T
  0.0000548139915113  0.3003246362605184  0.5000280931435875   T   T   T
  0.0994553515368619  0.1995822436188115  0.4998586591000319   T   T   T
  0.9996930929949519  0.4002658345788079  0.4298269183167437   T   T   T
  0.0998392525240723  0.5003187603869200  0.4298613251132399   T   T   T
  0.9996346944965222  0.5006671498465968  0.4998294434261873   T   T   T
  0.0984935905012963  0.4007575531766651  0.5001315977424928   T   T   T
  0.9998890153890327  0.6001462191255851  0.4297660531764450   T   T   T
  0.0999761051232916  0.7000603031803141  0.4297385601713829   T   T   T
  0.9999364469492793  0.7000742548046466  0.4997188696251749   T   T   T
  0.0997568975210086  0.6005183304202388  0.4997954595345706   T   T   T
  0.0000131468560990  0.7998573506908547  0.4297095553352659   T   T   T
  0.0999808024924463  0.8998003601953488  0.4297008446058855   T   T   T
  0.0001344506232418  0.8995055878288595  0.4996816660489229   T   T   T
  0.0999650977608271  0.7998543120949192  0.4996875415551377   T   T   T
  0.1998933123090794  0.9997135623386455  0.4297424593440254   T   T   T
  0.2999431877881477  0.0994770611491378  0.4298649292928799   T   T   T
  0.1992868783919432  0.0990939652890281  0.4998515181162917   T   T   T
  0.2995507227355084  0.9992720391755596  0.4998909006415414   T   T   T
  0.1995357471022968  0.1998225254813426  0.4297882832668052   T   T   T
  0.2999866895620805  0.2999815955723394  0.4293045803219524   T   T   T
  0.1981084065423102  0.2995048189525544  0.5004581007809459   T   T   T
  0.2974218549495366  0.1980435408556498  0.4997589499627917   T   T   T
  0.1998874286524853  0.4003907828614690  0.4294558471796902   T   T   T
  0.3003659320301600  0.5007206274352000  0.4296262834881614   T   T   T
  0.1998381403424138  0.5018146377145246  0.4998934677094637   T   T   T
  0.3021130072145887  0.4023605073923696  0.4994596802574457   T   T   T
  0.2000371137685160  0.6003561818035221  0.4297674214252089   T   T   T
  0.3001088150121757  0.7000905320131542  0.4297895823696826   T   T   T
  0.1999565422211228  0.7002440183933607  0.4997655566681808   T   T   T
  0.3000660097863875  0.6006128246004646  0.4999465933316765   T   T   T
  0.1999813311121729  0.7999302259224188  0.4297183677797421   T   T   T
  0.2999690851499335  0.8998062618712749  0.4297743911488612   T   T   T
  0.1998355333084502  0.8996152187177601  0.4997163221821276   T   T   T
  0.2998950479051444  0.7999392014245332  0.4997657447486967   T   T   T
  0.4000091749276122  0.9996740531629583  0.4298049157836455   T   T   T
  0.4998192380020789  0.0998017807556400  0.4297530857078412   T   T   T
  0.4000350635352395  0.0974043284578047  0.5009658301215003   T   T   T
  0.4999751052349772  0.9993542124295998  0.5003239030300900   T   T   T
  0.3999991628491381  0.1996888653175747  0.4290069871500639   T   T   T
  0.5006893140864352  0.3002555083301394  0.4298004488288280   T   T   T
  0.4025906736813687  0.3023560698500168  0.4996202992922066   T   T   T
  0.5025341300192628  0.1998317209193472  0.5004007394663539   T   T   T
  0.4008314218861268  0.4007832528038935  0.4295612409697832   T   T   T
  0.5002748146343682  0.5001325008998880  0.4297638572169506   T   T   T
  0.4005971050053140  0.5003647406666142  0.5013784384581724   T   T   T
  0.5008484919772126  0.4007282613242866  0.5010470262735426   T   T   T
  0.4002950081111035  0.5999883498643750  0.4297684593170112   T   T   T
  0.5000608957440263  0.6998729281605712  0.4299045115418178   T   T   T
  0.4001463983266979  0.7005243617624495  0.4999437867642634   T   T   T
  0.5000936646156730  0.6001169721927281  0.5006396669653410   T   T   T
  0.4000439062973635  0.7999229613232831  0.4297750112644378   T   T   T
  0.5000089688849275  0.8998737707767661  0.4298252041326476   T   T   T
  0.3999252180669847  0.8995433984875993  0.4998504346004876   T   T   T
  0.5000311518622604  0.7999104735557057  0.4998262006549481   T   T   T
  0.5999351739860175  0.9998795056708947  0.4298910541860633   T   T   T
  0.7000862791034221  0.0997497966954697  0.4290754103994747   T   T   T
  0.5975033994334156  0.0992374300672019  0.5009662904550737   T   T   T
  0.7003002509521761  0.9973403158886812  0.4997689470680477   T   T   T
  0.6000697251750190  0.2000546403411087  0.4297622922514382   T   T   T
  0.6998538482627720  0.3008211025736402  0.4296354960492662   T   T   T
  0.6001264983954825  0.3008479442375991  0.5008198398096196   T   T   T
  0.6986572198111118  0.2025884963034333  0.4996794821184538   T   T   T
  0.6001276923665814  0.4003481757137865  0.4299183293184650   T   T   T
  0.6999193188216585  0.5001307481347919  0.4295741537782993   T   T   T
  0.6002990865825623  0.5000016800092963  0.5009212542493705   T   T   T
  0.6998749213280411  0.4006617099238870  0.5007681525338322   T   T   T
  0.6000015895865790  0.5998434187393892  0.4297707899825625   T   T   T
  0.6999481567879534  0.6997931313848126  0.4298420243789313   T   T   T
  0.5999846377422765  0.7002935908676576  0.4999496804421849   T   T   T
  0.7001594606940807  0.6000652905673693  0.5005212881156305   T   T   T
  0.5999938229355276  0.7998233565369428  0.4297801396772112   T   T   T
  0.7000396513947741  0.8995105264077784  0.4296680462011241   T   T   T
  0.5998484598332430  0.8994562035421734  0.4998211304099205   T   T   T
  0.7000966286767575  0.7996558330947486  0.4997739356913320   T   T   T
  0.8002326047027750  0.9995954024351920  0.4298069951039794   T   T   T
  0.9003435874874057  0.0998916656936699  0.4297729510884416   T   T   T
  0.8025742494586773  0.0986171881472305  0.4999413940516979   T   T   T
  0.9005950001211694  0.9991224642099515  0.4997693961179306   T   T   T
  0.8000762763832600  0.2001934622554427  0.4295496283397751   T   T   T
  0.8997657501135468  0.3003381612405510  0.4298359715277049   T   T   T
  0.7996507670741302  0.3014961386047774  0.5005938924803099   T   T   T
  0.9011505613613739  0.2000480338230631  0.5003055034772055   T   T   T
  0.7997428138291707  0.4005398570571432  0.4295352246273900   T   T   T
  0.8997032284934955  0.5002358873513501  0.4298414103153813   T   T   T
  0.7997515687898735  0.5005434557881292  0.5005041476183624   T   T   T
  0.8998579977261180  0.4009250963868494  0.5000148597347073   T   T   T
  0.7997991152297009  0.5999582831466753  0.4298220015377668   T   T   T
  0.8999493188086511  0.6999222826473123  0.4297588021811410   T   T   T
  0.8000038938909765  0.6999281686589033  0.4998182058405548   T   T   T
  0.8998670742988596  0.6002220971172807  0.4998285157557994   T   T   T
  0.8000397357595452  0.7997356476096791  0.4297566058066260   T   T   T
  0.9001153236125897  0.8997056525270606  0.4297071898854568   T   T   T
  0.8004935484971394  0.8992629576902689  0.4997614264539035   T   T   T
  0.9001469908227893  0.7996812806475738  0.4997245352698499   T   T   T
  0.0000000000000000  0.0000000000000000  0.2886110000000031   F   F   F
  0.1000000000000014  0.1000000000000014  0.2886110000000031   F   F   F
  0.0000000000000000  0.1000000000000014  0.3590739999999997   F   F   F
  0.1000000000000014  0.0000000000000000  0.3590739999999997   F   F   F
  0.0000000000000000  0.2000000000000028  0.2886110000000031   F   F   F
  0.1000000000000014  0.2999999999999972  0.2886110000000031   F   F   F
  0.0000000000000000  0.2999999999999972  0.3590739999999997   F   F   F
  0.1000000000000014  0.2000000000000028  0.3590739999999997   F   F   F
  0.0000000000000000  0.3999999999999986  0.2886110000000031   F   F   F
  0.1000000000000014  0.5000000000000000  0.2886110000000031   F   F   F
  0.0000000000000000  0.5000000000000000  0.3590739999999997   F   F   F
  0.1000000000000014  0.3999999999999986  0.3590739999999997   F   F   F
  0.0000000000000000  0.6000000000000014  0.2886110000000031   F   F   F
  0.1000000000000014  0.7000000000000028  0.2886110000000031   F   F   F
  0.0000000000000000  0.7000000000000028  0.3590739999999997   F   F   F
  0.1000000000000014  0.6000000000000014  0.3590739999999997   F   F   F
  0.0000000000000000  0.7999999999999972  0.2886110000000031   F   F   F
  0.1000000000000014  0.8999999999999986  0.2886110000000031   F   F   F
  0.0000000000000000  0.8999999999999986  0.3590739999999997   F   F   F
  0.1000000000000014  0.7999999999999972  0.3590739999999997   F   F   F
  0.2000000000000028  0.0000000000000000  0.2886110000000031   F   F   F
  0.2999999999999972  0.1000000000000014  0.2886110000000031   F   F   F
  0.2000000000000028  0.1000000000000014  0.3590739999999997   F   F   F
  0.2999999999999972  0.0000000000000000  0.3590739999999997   F   F   F
  0.2000000000000028  0.2000000000000028  0.2886110000000031   F   F   F
  0.2999999999999972  0.2999999999999972  0.2886110000000031   F   F   F
  0.2000000000000028  0.2999999999999972  0.3590739999999997   F   F   F
  0.2999999999999972  0.2000000000000028  0.3590739999999997   F   F   F
  0.2000000000000028  0.3999999999999986  0.2886110000000031   F   F   F
  0.2999999999999972  0.5000000000000000  0.2886110000000031   F   F   F
  0.2000000000000028  0.5000000000000000  0.3590739999999997   F   F   F
  0.2999999999999972  0.3999999999999986  0.3590739999999997   F   F   F
  0.2000000000000028  0.6000000000000014  0.2886110000000031   F   F   F
  0.2999999999999972  0.7000000000000028  0.2886110000000031   F   F   F
  0.2000000000000028  0.7000000000000028  0.3590739999999997   F   F   F
  0.2999999999999972  0.6000000000000014  0.3590739999999997   F   F   F
  0.2000000000000028  0.7999999999999972  0.2886110000000031   F   F   F
  0.2999999999999972  0.8999999999999986  0.2886110000000031   F   F   F
  0.2000000000000028  0.8999999999999986  0.3590739999999997   F   F   F
  0.2999999999999972  0.7999999999999972  0.3590739999999997   F   F   F
  0.3999999999999986  0.0000000000000000  0.2886110000000031   F   F   F
  0.5000000000000000  0.1000000000000014  0.2886110000000031   F   F   F
  0.3999999999999986  0.1000000000000014  0.3590739999999997   F   F   F
  0.5000000000000000  0.0000000000000000  0.3590739999999997   F   F   F
  0.3999999999999986  0.2000000000000028  0.2886110000000031   F   F   F
  0.5000000000000000  0.2999999999999972  0.2886110000000031   F   F   F
  0.3999999999999986  0.2999999999999972  0.3590739999999997   F   F   F
  0.5000000000000000  0.2000000000000028  0.3590739999999997   F   F   F
  0.3999999999999986  0.3999999999999986  0.2886110000000031   F   F   F
  0.5000000000000000  0.5000000000000000  0.2886110000000031   F   F   F
  0.3999999999999986  0.5000000000000000  0.3590739999999997   F   F   F
  0.5000000000000000  0.3999999999999986  0.3590739999999997   F   F   F
  0.3999999999999986  0.6000000000000014  0.2886110000000031   F   F   F
  0.5000000000000000  0.7000000000000028  0.2886110000000031   F   F   F
  0.3999999999999986  0.7000000000000028  0.3590739999999997   F   F   F
  0.5000000000000000  0.6000000000000014  0.3590739999999997   F   F   F
  0.3999999999999986  0.7999999999999972  0.2886110000000031   F   F   F
  0.5000000000000000  0.8999999999999986  0.2886110000000031   F   F   F
  0.3999999999999986  0.8999999999999986  0.3590739999999997   F   F   F
  0.5000000000000000  0.7999999999999972  0.3590739999999997   F   F   F
  0.6000000000000014  0.0000000000000000  0.2886110000000031   F   F   F
  0.7000000000000028  0.1000000000000014  0.2886110000000031   F   F   F
  0.6000000000000014  0.1000000000000014  0.3590739999999997   F   F   F
  0.7000000000000028  0.0000000000000000  0.3590739999999997   F   F   F
  0.6000000000000014  0.2000000000000028  0.2886110000000031   F   F   F
  0.7000000000000028  0.2999999999999972  0.2886110000000031   F   F   F
  0.6000000000000014  0.2999999999999972  0.3590739999999997   F   F   F
  0.7000000000000028  0.2000000000000028  0.3590739999999997   F   F   F
  0.6000000000000014  0.3999999999999986  0.2886110000000031   F   F   F
  0.7000000000000028  0.5000000000000000  0.2886110000000031   F   F   F
  0.6000000000000014  0.5000000000000000  0.3590739999999997   F   F   F
  0.7000000000000028  0.3999999999999986  0.3590739999999997   F   F   F
  0.6000000000000014  0.6000000000000014  0.2886110000000031   F   F   F
  0.7000000000000028  0.7000000000000028  0.2886110000000031   F   F   F
  0.6000000000000014  0.7000000000000028  0.3590739999999997   F   F   F
  0.7000000000000028  0.6000000000000014  0.3590739999999997   F   F   F
  0.6000000000000014  0.7999999999999972  0.2886110000000031   F   F   F
  0.7000000000000028  0.8999999999999986  0.2886110000000031   F   F   F
  0.6000000000000014  0.8999999999999986  0.3590739999999997   F   F   F
  0.7000000000000028  0.7999999999999972  0.3590739999999997   F   F   F
  0.7999999999999972  0.0000000000000000  0.2886110000000031   F   F   F
  0.8999999999999986  0.1000000000000014  0.2886110000000031   F   F   F
  0.7999999999999972  0.1000000000000014  0.3590739999999997   F   F   F
  0.8999999999999986  0.0000000000000000  0.3590739999999997   F   F   F
  0.7999999999999972  0.2000000000000028  0.2886110000000031   F   F   F
  0.8999999999999986  0.2999999999999972  0.2886110000000031   F   F   F
  0.7999999999999972  0.2999999999999972  0.3590739999999997   F   F   F
  0.8999999999999986  0.2000000000000028  0.3590739999999997   F   F   F
  0.7999999999999972  0.3999999999999986  0.2886110000000031   F   F   F
  0.8999999999999986  0.5000000000000000  0.2886110000000031   F   F   F
  0.7999999999999972  0.5000000000000000  0.3590739999999997   F   F   F
  0.8999999999999986  0.3999999999999986  0.3590739999999997   F   F   F
  0.7999999999999972  0.6000000000000014  0.2886110000000031   F   F   F
  0.8999999999999986  0.7000000000000028  0.2886110000000031   F   F   F
  0.7999999999999972  0.7000000000000028  0.3590739999999997   F   F   F
  0.8999999999999986  0.6000000000000014  0.3590739999999997   F   F   F
  0.7999999999999972  0.7999999999999972  0.2886110000000031   F   F   F
  0.8999999999999986  0.8999999999999986  0.2886110000000031   F   F   F
  0.7999999999999972  0.8999999999999986  0.3590739999999997   F   F   F
  0.8999999999999986  0.7999999999999972  0.3590739999999997   F   F   F
  0.0001189653721915  0.9997294857813235  0.5008566662585933   T   T   T
  0.0997983236462525  0.0997467747815188  0.5009387297540389   T   T   T
  0.0000284894296374  0.1000792756594823  0.4295450210330454   T   T   T
  0.0999766633522193 -0.0000184112866263  0.4295063328777969   T   T   T
  0.0001701360580627  0.1999643259261387  0.5010919037894379   T   T   T
  0.0996635561390210  0.3001374468014540  0.5011475881249994   T   T   T
  0.9999036268081197  0.2999923288208995  0.4297289227300571   T   T   T
  0.0999615846241777  0.2001368475218090  0.4295887172881409   T   T   T
  0.9998512721099444  0.4001892496840989  0.5010429977457396   T   T   T
  0.0998892003152925  0.5002809332345095  0.5010242540877682   T   T   T
  0.0001235666370510  0.4999860141326036  0.4295502546091208   T   T   T
  0.1003271234409334  0.3999450660929195  0.4298731186721814   T   T   T
  0.0000816370687573  0.6002363768843638  0.5008966342383526   T   T   T
  0.0999652350726295  0.7001212796049856  0.5008876125848799   T   T   T
  0.0000944762154676  0.7000527043186714  0.4295015813501279   T   T   T
  0.1000780165811516  0.6000239432821846  0.4295184962559238   T   T   T
  0.0000933856372004  0.7999503429097496  0.5008661978791528   T   T   T
  0.0999448607393122  0.8998517750581424  0.5008319068549224   T   T   T
  0.0000532094920317  0.8999667374464977  0.4294997942050159   T   T   T
  0.0999873479339198  0.8000319687317774  0.4295052900660898   T   T   T
  0.1997209273471895  0.9997511375696445  0.5009333120819625   T   T   T
  0.2995328841738251  0.0995289582665376  0.5009569318519485   T   T   T
  0.1999210528078298  0.1000512515491677  0.4295913562574303   T   T   T
  0.2999099001005234  0.9999362295781301  0.4295858628639420   T   T   T
  0.1992212901999021  0.1997476686307115  0.5009995766840305   T   T   T
  0.2985092842569841  0.2986058552935166  0.5013852325344914   T   T   T
  0.2001369580442238  0.3003871324091840  0.4302210705195257   T   T   T
  0.2999465382403584  0.2001393634684009  0.4299435578815863   T   T   T
  0.1987150802128937  0.4003398815213995  0.5030669544158549   T   T   T
  0.2997074198124088  0.5011298820692701  0.4995398185639637   T   T   T
  0.1998505319849817  0.4996682421048800  0.4297016215983555   T   T   T
  0.2994921444290516  0.3994826025447078  0.4299463416560831   T   T   T
  0.1998073655342972  0.6004837825545433  0.5008881595078529   T   T   T
  0.2998792282534029  0.7002901544355645  0.5009269947261835   T   T   T
  0.1999381494480217  0.7001151742632751  0.4295128430760430   T   T   T
  0.2999178057580969  0.6003665341280241  0.4294531848151984   T   T   T
  0.1998768991554877  0.8000261536262651  0.5008645711841867   T   T   T
  0.2997461147504154  0.8998651847313579  0.5009232157106623   T   T   T
  0.1999264339983583  0.9000049470635954  0.4295168024005544   T   T   T
  0.2999456407183809  0.8000754752886139  0.4295166199842577   T   T   T
  0.3997551415255193  0.9992665363757872  0.5009800519242432   T   T   T
  0.4993976874668259  0.1000298669451065  0.4996333361730900   T   T   T
  0.3995676406429068  0.1002945625253735  0.4299071033314250   T   T   T
  0.4998764444835976 -0.0000460169164452  0.4295946436683697   T   T   T
  0.3980790698812497  0.1991003859149729  0.5016435820905512   T   T   T
  0.5002830461000255  0.2992813352264078  0.5003650550547770   T   T   T
  0.3994852662491721  0.2992993255271038  0.4299709965142306   T   T   T
  0.4992964878589598  0.1998756206452486  0.4298087090740137   T   T   T
  0.4005277881095125  0.4000791706314810  0.4992539086543211   T   T   T
  0.5002792217805351  0.4999106110340940  0.4992213132349776   T   T   T
  0.3998088720663225  0.5002671833693101  0.4294673892753387   T   T   T
  0.5000698141587343  0.3996024491564030  0.4293924992244025   T   T   T
  0.3998177633795251  0.6009245247408711  0.5010640133221593   T   T   T
  0.4999397268627471  0.7004233680696276  0.5009804950527496   T   T   T
  0.3999494701522582  0.7001378186390108  0.4295914957910738   T   T   T
  0.4998952166224290  0.6003164781484125  0.4296211197014774   T   T   T
  0.3998884847359980  0.8001953282843924  0.5009361421897467   T   T   T
  0.5000249506002026  0.8999372295238921  0.5009619957187553   T   T   T
  0.3999248925808455  0.9000149454292731  0.4295484303340766   T   T   T
  0.4999774787745430  0.8001387649294455  0.4295402495731701   T   T   T
  0.6003331127148560  0.9997908004749004  0.5006672974326993   T   T   T
  0.7026591883255768  0.0980476047586051  0.5010868046072672   T   T   T
  0.6005797575929701  0.0998902679719342  0.4299040352897525   T   T   T
  0.7002855438059159  0.0001705114894811  0.4297117532032328   T   T   T
  0.6004222815889686  0.1995543261127447  0.4999165328690303   T   T   T
  0.6997931589291491  0.3006835022375791  0.4994942710382403   T   T   T
  0.6000616716698080  0.2996235345509417  0.4294302281199083   T   T   T
  0.7005736290573052  0.1993514614745482  0.4299389563691284   T   T   T
  0.6000462963422607  0.3998820391468424  0.5003175596780274   T   T   T
  0.7000566323692426  0.5001106185405856  0.4990203540416632   T   T   T
  0.6000030740630453  0.5002112241113992  0.4294014964383701   T   T   T
  0.7000848114691519  0.4000025397564890  0.4291771206038085   T   T   T
  0.5998896901885689  0.6008077294906560  0.5007590310009951   T   T   T
  0.7000700786246611  0.7003144018397827  0.5009826673051283   T   T   T
  0.5999906116322268  0.7001748312842146  0.4295802356284196   T   T   T
  0.6999694550675322  0.6003784402020051  0.4295479088594590   T   T   T
  0.6000473851063355  0.8001486161499008  0.5009013119742073   T   T   T
  0.7002182750538211  0.8994715017394481  0.5008058823030205   T   T   T
  0.6001213395855262  0.9000588022383907  0.4295313247427560   T   T   T
  0.7000731180188233  0.7999986602090894  0.4294940557960845   T   T   T
  0.8005055318332491  0.9994419572979507  0.5009483883679413   T   T   T
  0.9006564607517746  0.0997479062297984  0.5010061590896381   T   T   T
  0.8000675311867194  0.1001716437588478  0.4299428448336519   T   T   T
  0.9000981925763777  0.0000359531478534  0.4295426806282859   T   T   T
  0.8008448211365340  0.1991579022306928  0.5023228841991865   T   T   T
  0.9003398949232624  0.3000288195783991  0.5016816290248196   T   T   T
  0.8002874035099311  0.2994486169591912  0.4298398788253887   T   T   T
  0.8998222893133282  0.2000312124905032  0.4299927827821348   T   T   T
  0.8005506488305471  0.4007011183148119  0.4991706300740802   T   T   T
  0.9002700085195745  0.5003519377732131  0.5008621669680116   T   T   T
  0.8003233398008935  0.5003323599750304  0.4293132014634081   T   T   T
  0.9002665524122163  0.3998517337427159  0.4295285135402129   T   T   T
  0.8002578918083589  0.6003793882146633  0.5007927181450763   T   T   T
  0.9001635757580736  0.7001151436425009  0.5008903458699167   T   T   T
  0.8000968161303599  0.7001093479256673  0.4295251091041500   T   T   T
  0.9001753608437484  0.6001507078279628  0.4295146546102232   T   T   T
  0.8002350543152752  0.7999713980235135  0.5008972516248857   T   T   T
  0.9002844595314439  0.8997538949710342  0.5008626802261801   T   T   T
  0.8001098671625924  0.8999678122040992  0.4295145504242969   T   T   T
  0.9001017236195016  0.8000014993933794  0.4295090997037695   T   T   T
  0.0000000000000000  0.0000000000000000  0.3590739999999997   F   F   F
  0.1000000000000014  0.1000000000000014  0.3590739999999997   F   F   F
  0.0000000000000000  0.1000000000000014  0.2886110000000031   F   F   F
  0.1000000000000014  0.0000000000000000  0.2886110000000031   F   F   F
  0.0000000000000000  0.2000000000000028  0.3590739999999997   F   F   F
  0.1000000000000014  0.2999999999999972  0.3590739999999997   F   F   F
  0.0000000000000000  0.2999999999999972  0.2886110000000031   F   F   F
  0.1000000000000014  0.2000000000000028  0.2886110000000031   F   F   F
  0.0000000000000000  0.3999999999999986  0.3590739999999997   F   F   F
  0.1000000000000014  0.5000000000000000  0.3590739999999997   F   F   F
  0.0000000000000000  0.5000000000000000  0.2886110000000031   F   F   F
  0.1000000000000014  0.3999999999999986  0.2886110000000031   F   F   F
  0.0000000000000000  0.6000000000000014  0.3590739999999997   F   F   F
  0.1000000000000014  0.7000000000000028  0.3590739999999997   F   F   F
  0.0000000000000000  0.7000000000000028  0.2886110000000031   F   F   F
  0.1000000000000014  0.6000000000000014  0.2886110000000031   F   F   F
  0.0000000000000000  0.7999999999999972  0.3590739999999997   F   F   F
  0.1000000000000014  0.8999999999999986  0.3590739999999997   F   F   F
  0.0000000000000000  0.8999999999999986  0.2886110000000031   F   F   F
  0.1000000000000014  0.7999999999999972  0.2886110000000031   F   F   F
  0.2000000000000028  0.0000000000000000  0.3590739999999997   F   F   F
  0.2999999999999972  0.1000000000000014  0.3590739999999997   F   F   F
  0.2000000000000028  0.1000000000000014  0.2886110000000031   F   F   F
  0.2999999999999972  0.0000000000000000  0.2886110000000031   F   F   F
  0.2000000000000028  0.2000000000000028  0.3590739999999997   F   F   F
  0.2999999999999972  0.2999999999999972  0.3590739999999997   F   F   F
  0.2000000000000028  0.2999999999999972  0.2886110000000031   F   F   F
  0.2999999999999972  0.2000000000000028  0.2886110000000031   F   F   F
  0.2000000000000028  0.3999999999999986  0.3590739999999997   F   F   F
  0.2999999999999972  0.5000000000000000  0.3590739999999997   F   F   F
  0.2000000000000028  0.5000000000000000  0.2886110000000031   F   F   F
  0.2999999999999972  0.3999999999999986  0.2886110000000031   F   F   F
  0.2000000000000028  0.6000000000000014  0.3590739999999997   F   F   F
  0.2999999999999972  0.7000000000000028  0.3590739999999997   F   F   F
  0.2000000000000028  0.7000000000000028  0.2886110000000031   F   F   F
  0.2999999999999972  0.6000000000000014  0.2886110000000031   F   F   F
  0.2000000000000028  0.7999999999999972  0.3590739999999997   F   F   F
  0.2999999999999972  0.8999999999999986  0.3590739999999997   F   F   F
  0.2000000000000028  0.8999999999999986  0.2886110000000031   F   F   F
  0.2999999999999972  0.7999999999999972  0.2886110000000031   F   F   F
  0.3999999999999986  0.0000000000000000  0.3590739999999997   F   F   F
  0.5000000000000000  0.1000000000000014  0.3590739999999997   F   F   F
  0.3999999999999986  0.1000000000000014  0.2886110000000031   F   F   F
  0.5000000000000000  0.0000000000000000  0.2886110000000031   F   F   F
  0.3999999999999986  0.2000000000000028  0.3590739999999997   F   F   F
  0.5000000000000000  0.2999999999999972  0.3590739999999997   F   F   F
  0.3999999999999986  0.2999999999999972  0.2886110000000031   F   F   F
  0.5000000000000000  0.2000000000000028  0.2886110000000031   F   F   F
  0.3999999999999986  0.3999999999999986  0.3590739999999997   F   F   F
  0.5000000000000000  0.5000000000000000  0.3590739999999997   F   F   F
  0.3999999999999986  0.5000000000000000  0.2886110000000031   F   F   F
  0.5000000000000000  0.3999999999999986  0.2886110000000031   F   F   F
  0.3999999999999986  0.6000000000000014  0.3590739999999997   F   F   F
  0.5000000000000000  0.7000000000000028  0.3590739999999997   F   F   F
  0.3999999999999986  0.7000000000000028  0.2886110000000031   F   F   F
  0.5000000000000000  0.6000000000000014  0.2886110000000031   F   F   F
  0.3999999999999986  0.7999999999999972  0.3590739999999997   F   F   F
  0.5000000000000000  0.8999999999999986  0.3590739999999997   F   F   F
  0.3999999999999986  0.8999999999999986  0.2886110000000031   F   F   F
  0.5000000000000000  0.7999999999999972  0.2886110000000031   F   F   F
  0.6000000000000014  0.0000000000000000  0.3590739999999997   F   F   F
  0.7000000000000028  0.1000000000000014  0.3590739999999997   F   F   F
  0.6000000000000014  0.1000000000000014  0.2886110000000031   F   F   F
  0.7000000000000028  0.0000000000000000  0.2886110000000031   F   F   F
  0.6000000000000014  0.2000000000000028  0.3590739999999997   F   F   F
  0.7000000000000028  0.2999999999999972  0.3590739999999997   F   F   F
  0.6000000000000014  0.2999999999999972  0.2886110000000031   F   F   F
  0.7000000000000028  0.2000000000000028  0.2886110000000031   F   F   F
  0.6000000000000014  0.3999999999999986  0.3590739999999997   F   F   F
  0.7000000000000028  0.5000000000000000  0.3590739999999997   F   F   F
  0.6000000000000014  0.5000000000000000  0.2886110000000031   F   F   F
  0.7000000000000028  0.3999999999999986  0.2886110000000031   F   F   F
  0.6000000000000014  0.6000000000000014  0.3590739999999997   F   F   F
  0.7000000000000028  0.7000000000000028  0.3590739999999997   F   F   F
  0.6000000000000014  0.7000000000000028  0.2886110000000031   F   F   F
  0.7000000000000028  0.6000000000000014  0.2886110000000031   F   F   F
  0.6000000000000014  0.7999999999999972  0.3590739999999997   F   F   F
  0.7000000000000028  0.8999999999999986  0.3590739999999997   F   F   F
  0.6000000000000014  0.8999999999999986  0.2886110000000031   F   F   F
  0.7000000000000028  0.7999999999999972  0.2886110000000031   F   F   F
  0.7999999999999972  0.0000000000000000  0.3590739999999997   F   F   F
  0.8999999999999986  0.1000000000000014  0.3590739999999997   F   F   F
  0.7999999999999972  0.1000000000000014  0.2886110000000031   F   F   F
  0.8999999999999986  0.0000000000000000  0.2886110000000031   F   F   F
  0.7999999999999972  0.2000000000000028  0.3590739999999997   F   F   F
  0.8999999999999986  0.2999999999999972  0.3590739999999997   F   F   F