Ag                                      
   1.0000000000000000     
    21.1388521970183838    0.0000000000000000    0.0000000000000000
     0.0000000000000000   21.1388521970183838    0.0000000000000000
     0.0000000000000000    0.0000000000000000   22.1138852197018352
   Ag
     2
Direct
  0.4929814440227531  0.4070185620954447  0.6375321465461568
  0.4070185320706585  0.4929814740475393  0.6375321465461568

  0.00000000E+00  0.00000000E+00  0.00000000E+00
  0.00000000E+00  0.00000000E+00  0.00000000E+00
