Au                                      
   1.0000000000000000     
    20.0000000000000000    0.0000000000000000    0.0000000000000000
     0.0000000000000000   20.0000000000000000    0.0000000000000000
     0.0000000000000000    0.0000000000000000   20.0000000000000000
   Au
     8
Direct
  0.4396871372001113  0.3998199206228505  0.4863939560408677
  0.5736021550380501  0.5746621205431167  0.4137959847145146
  0.5635964894722870  0.4452391617588818  0.4598485763163065
  0.3843329722371404  0.5232062062158130  0.5375702414739438
  0.4944667084967458  0.5995013761888034  0.5237650680139042
  0.6155465376938959  0.5381604738021820  0.5472177645577896
  0.5037598580145433  0.4727961187902483  0.5840780369554069
  0.4512767091072304  0.5184335030631100  0.4173036125872701

  0.00000000E+00  0.00000000E+00  0.00000000E+00
  0.00000000E+00  0.00000000E+00  0.00000000E+00
  0.00000000E+00  0.00000000E+00  0.00000000E+00
  0.00000000E+00  0.00000000E+00  0.00000000E+00
  0.00000000E+00  0.00000000E+00  0.00000000E+00
  0.00000000E+00  0.00000000E+00  0.00000000E+00
  0.00000000E+00  0.00000000E+00  0.00000000E+00
  0.00000000E+00  0.00000000E+00  0.00000000E+00
