Cu 
 1.0000000000000000
    21.1388521970183838    0.0000000000000000    0.0000000000000000
     0.0000000000000000   21.1388521970183838    0.0000000000000000
     0.0000000000000000    0.0000000000000000   22.1138852197018352
  Cu
   2
Direct
  0.6542852646127472  0.5000000001879528  0.6052958396009801
  0.5457146642290013  0.5000000001879528  0.6052958396009801
