au4                                     
   1.0000000000000000     
    20.0000000000000000    0.0000000000000000    0.0000000000000000
     0.0000000000000000   20.0000000000000000    0.0000000000000000
     0.0000000000000000    0.0000000000000000   20.0000000000000000
   Au
     4
Direct
  0.9715131675162637  0.1066546277187121  0.9990234884096618
  0.9595629445626090  0.8608180406614361  0.9533910800856148
  0.9928335490465824  0.9753402546075554  0.9917178522943879
  0.0760903388745448  0.0571870770122964  0.0558675792103355

  0.00000000E+00  0.00000000E+00  0.00000000E+00
  0.00000000E+00  0.00000000E+00  0.00000000E+00
  0.00000000E+00  0.00000000E+00  0.00000000E+00
  0.00000000E+00  0.00000000E+00  0.00000000E+00
