Ag                                      
   1.00000000000000     
    20.0000000000000000    0.0000000000000000    0.0000000000000000
     0.0000000000000000   20.0000000000000000    0.0000000000000000
     0.0000000000000000    0.0000000000000000   20.0000000000000000
   Ag
     6
Direct
  0.5014572607231145  0.4329750024963985  0.4966951638043895
  0.4290248523040603  0.4999640731510837  0.5932276131374010
  0.4307129523285482  0.3668338003062956  0.5881832942383056
  0.5009557068340058  0.5710132388541709  0.4992273051613765
  0.5700910206988397  0.5039317400567285  0.4071814747726776
  0.4303308381714288  0.6332147343803172  0.5935620613908412
 
  0.00000000E+00  0.00000000E+00  0.00000000E+00
  0.00000000E+00  0.00000000E+00  0.00000000E+00
  0.00000000E+00  0.00000000E+00  0.00000000E+00
  0.00000000E+00  0.00000000E+00  0.00000000E+00
  0.00000000E+00  0.00000000E+00  0.00000000E+00
  0.00000000E+00  0.00000000E+00  0.00000000E+00
