Au                                      
   1.0000000000000000     
    20.0000000000000000    0.0000000000000000    0.0000000000000000
     0.0000000000000000   20.0000000000000000    0.0000000000000000
     0.0000000000000000    0.0000000000000000   20.0000000000000000
   Au
     8
Direct
  0.5197730280832256  0.4071310373286570  0.5034902428861810
  0.4137387584784845  0.4770446187248796  0.4509388756004974
  0.4389349988805638  0.4851782963006447  0.5825503894683127
  0.5044125671723021  0.5948262871881411  0.6294963838335503
  0.5855326605715416  0.5173314678848278  0.5525436045389084
  0.4780777963446365  0.5935858372854279  0.4998661325909243
  0.5602835400829094  0.5092111458946753  0.4209241168298943
  0.4548204049813372  0.5788389632427430  0.3704644399967358

  0.00000000E+00  0.00000000E+00  0.00000000E+00
  0.00000000E+00  0.00000000E+00  0.00000000E+00
  0.00000000E+00  0.00000000E+00  0.00000000E+00
  0.00000000E+00  0.00000000E+00  0.00000000E+00
  0.00000000E+00  0.00000000E+00  0.00000000E+00
  0.00000000E+00  0.00000000E+00  0.00000000E+00
  0.00000000E+00  0.00000000E+00  0.00000000E+00
  0.00000000E+00  0.00000000E+00  0.00000000E+00
