Cu Mg  O                                
   1.0000000000000000     
    21.1388521970183838    0.0000000000000000    0.0000000000000000
     0.0000000000000000   21.1388521970183838    0.0000000000000000
     0.0000000000000000    0.0000000000000000   22.1138852197018352
   Cu  
     4 
Selective dynamics
Direct
  0.3983292412859830  0.6017183953280939  0.5977374706897479   T   T   T
  0.3206172401350432  0.6794288505565822  0.5992241530213543   T   T   T
  0.5794283774940103  0.4206177131976221  0.5992241530213543   T   T   T
  0.5017179222655220  0.4983292412859844  0.5977374706897479   T   T   T
