Au Mg  O                                
   1.0000000000000000     
    21.1388521970183838    0.0000000000000000    0.0000000000000000
     0.0000000000000000   21.1388521970183838    0.0000000000000000
     0.0000000000000000    0.0000000000000000   22.1138852197018352
   Au
     4
Selective dynamics
Direct
  0.4042533725200386  0.5957946329387624  0.6653456179368149   T   T   T
  0.3321393728916462  0.6679081595045631  0.6020228633413893   T   T   T
  0.5679076864419912  0.4321398459542252  0.6020228633413893   T   T   T
  0.4957941598761835  0.5042533725200329  0.6653456179368149   T   T   T

  0.00000000E+00  0.00000000E+00  0.00000000E+00
  0.00000000E+00  0.00000000E+00  0.00000000E+00
  0.00000000E+00  0.00000000E+00  0.00000000E+00
  0.00000000E+00  0.00000000E+00  0.00000000E+00
