Au                                      
   1.00000000000000     
    20.0000000000000000    0.0000000000000000    0.0000000000000000
     0.0000000000000000   20.0000000000000000    0.0000000000000000
     0.0000000000000000    0.0000000000000000   20.0000000000000000
   Au
     6
Direct
  0.4598302488616568  0.3463313570940727  0.5432366081012532
  0.5311546085910237  0.5260691858725153  0.4466795829047001
  0.4687753326198560  0.4739646825802808  0.5534292595976211
  0.5220479380403162  0.3978569234078435  0.4367888077844455
  0.5401664634395473  0.6536905393746579  0.4566972465711103
  0.4779570936775954  0.6021686595806202  0.5631782045258618
 
  0.00000000E+00  0.00000000E+00  0.00000000E+00
  0.00000000E+00  0.00000000E+00  0.00000000E+00
  0.00000000E+00  0.00000000E+00  0.00000000E+00
  0.00000000E+00  0.00000000E+00  0.00000000E+00
  0.00000000E+00  0.00000000E+00  0.00000000E+00
  0.00000000E+00  0.00000000E+00  0.00000000E+00
