Au                                      
   1.0000000000000000     
    20.0000000000000000    0.0000000000000000    0.0000000000000000
     0.0000000000000000   20.0000000000000000    0.0000000000000000
     0.0000000000000000    0.0000000000000000   20.0000000000000000
   Au
     6
Direct
  0.4598302488616580  0.3463313570940703  0.5432366081012536
  0.5311546085910255  0.5260691858725184  0.4466795829046992
  0.4687753326198559  0.4739646825802825  0.5534292595976205
  0.5220479380403138  0.3978569234078462  0.4367888077844483
  0.5401664634395476  0.6536905393746594  0.4566972465711132
  0.4779570936775950  0.6021686595806206  0.5631782045258643

  0.00000000E+00  0.00000000E+00  0.00000000E+00
  0.00000000E+00  0.00000000E+00  0.00000000E+00
  0.00000000E+00  0.00000000E+00  0.00000000E+00
  0.00000000E+00  0.00000000E+00  0.00000000E+00
  0.00000000E+00  0.00000000E+00  0.00000000E+00
  0.00000000E+00  0.00000000E+00  0.00000000E+00
