Ag 
 1.0000000000000000
    21.1388521970183838    0.0000000000000000    0.0000000000000000
     0.0000000000000000   21.1388521970183838    0.0000000000000000
     0.0000000000000000    0.0000000000000000   22.1138852197018352
  Ag
   2
Direct
  0.5608110573303356  0.5000000001879528  0.6353692609421122
  0.4391889426696641  0.5000000001879528  0.6353692609421122
