Ag                                      
   1.00000000000000     
    21.1388521970183838    0.0000000000000000    0.0000000000000000
     0.0000000000000000   21.1388521970183838    0.0000000000000000
     0.0000000000000000    0.0000000000000000   22.1138852197018352
   Ag
     2
Direct
  0.5432827341680735  0.4567172657849454  0.6253348060777597
  0.4567172658319265  0.5432827341210853  0.6253348060777597
 
  0.00000000E+00  0.00000000E+00  0.00000000E+00
  0.00000000E+00  0.00000000E+00  0.00000000E+00
