Au 
 1.0000000000000000
    21.1388521970183838    0.0000000000000000    0.0000000000000000
     0.0000000000000000   21.1388521970183838    0.0000000000000000
     0.0000000000000000    0.0000000000000000   22.1138852197018352
  Au
   2
Direct
  0.4922809924784441  0.4077190136397537  0.6296624366964281
  0.4077189836149675  0.4922810225032304  0.6296624366964281
