Au                                      
   1.0000000000000000     
    20.0000000000000000    0.0000000000000000    0.0000000000000000
     0.0000000000000000   20.0000000000000000    0.0000000000000000
     0.0000000000000000    0.0000000000000000   20.0000000000000000
   Au
     8
Direct
  0.5197730280832289  0.4071310373286536  0.5034902428861798
  0.4137387584784875  0.4770446187248822  0.4509388756004995
  0.4389349988805620  0.4851782963006457  0.5825503894683095
  0.5044125671723023  0.5948262871881411  0.6294963838335477
  0.5855326605715447  0.5173314678848300  0.5525436045389114
  0.4780777963446354  0.5935858372854312  0.4998661325909239
  0.5602835400829065  0.5092111458946746  0.4209241168298945
  0.4548204049813407  0.5788389632427453  0.3704644399967378

  0.00000000E+00  0.00000000E+00  0.00000000E+00
  0.00000000E+00  0.00000000E+00  0.00000000E+00
  0.00000000E+00  0.00000000E+00  0.00000000E+00
  0.00000000E+00  0.00000000E+00  0.00000000E+00
  0.00000000E+00  0.00000000E+00  0.00000000E+00
  0.00000000E+00  0.00000000E+00  0.00000000E+00
  0.00000000E+00  0.00000000E+00  0.00000000E+00
  0.00000000E+00  0.00000000E+00  0.00000000E+00
