Cu                                      
   1.0000000000000000     
    20.0000000000000000    0.0000000000000000    0.0000000000000000
     0.0000000000000000   20.0000000000000000    0.0000000000000000
     0.0000000000000000    0.0000000000000000   20.0000000000000000
   Cu
     8
Direct
  0.4527160049306047  0.4963272360909434  0.5694468888078946
  0.5841955562405511  0.5148621015941482  0.4872891687317409
  0.5177571236223650  0.4685516526126362  0.4010568798782612
  0.5303161110497135  0.5879103871533927  0.5660509364250500
  0.4727254671565417  0.5582640841063090  0.4670409052580587
  0.5670348615251278  0.4739963512412860  0.5989784953340235
  0.5188979983583247  0.4148215590588331  0.5085787236407687
  0.4133304221767748  0.4537512087624516  0.4663945659841973

  0.00000000E+00  0.00000000E+00  0.00000000E+00
  0.00000000E+00  0.00000000E+00  0.00000000E+00
  0.00000000E+00  0.00000000E+00  0.00000000E+00
  0.00000000E+00  0.00000000E+00  0.00000000E+00
  0.00000000E+00  0.00000000E+00  0.00000000E+00
  0.00000000E+00  0.00000000E+00  0.00000000E+00
  0.00000000E+00  0.00000000E+00  0.00000000E+00
  0.00000000E+00  0.00000000E+00  0.00000000E+00
