Mg  O                                   
   1.00000000000000     
    21.1388521970183838    0.0000000000000000    0.0000000000000000
     0.0000000000000000   21.1388521970183838    0.0000000000000000
     0.0000000000000000    0.0000000000000000   30.0000000000000000
   Au  
    20 
Selective dynamics
Direct
  0.4973078607740812  0.4329002225541924  0.6109144565759258   T   T   T
  0.3273808036869225  0.3142112141931291  0.5761787778171530   T   T   T
  0.5568838102438223  0.5433726471840686  0.5910936214300458   T   T   T
  0.5668168011062440  0.3236774098119714  0.6189181188807782   T   T   T
  0.4492004299875598  0.0971527951457616  0.6012907676800581   T   T   T
  0.6362341546222481  0.2143230178617199  0.6162794714222354   T   T   T
  0.5093239465525080  0.2105054950261841  0.6238029881865935   T   T   T
  0.4286388256952189  0.5405491464011983  0.5905159507096023   T   T   T
  0.6839691606935479  0.5473538478767686  0.5942848589694757   T   T   T
  0.5736804895088282  0.1005645116669620  0.6085345801897163   T   T   T
  0.3704479170432427  0.4302325616068349  0.6049237504621913   T   T   T
  0.8173163350116427  0.3350557643177903  0.5905564636617395   T   T   T
  0.4390288606561941  0.3195664796733957  0.6188311350000570   T   T   T
  0.2521026910599216  0.4161251533509420  0.5790865257953088   T   T   T
  0.6934456646545364  0.3278681408708781  0.6087674836541980   T   T   T
  0.6856760243219527  0.1138741249521530  0.5724958043551205   T   T   T
  0.6248609669843757  0.4351249111247189  0.6063546481713686   T   T   T
  0.7544486010499487  0.4436032580731291  0.5948282011155008   T   T   T
  0.4044862321447373  0.2109392456225914  0.5746741609765137   T   T   T
  0.7575503855688162  0.2212257774934263  0.5831332101509155   T   T   T
