Au                                      
   1.00000000000000     
    21.1388521970183838    0.0000000000000000    0.0000000000000000
     0.0000000000000000   21.1388521970183838    0.0000000000000000
     0.0000000000000000    0.0000000000000000   22.1138852197018352
   Au
     2
Direct
  0.4999999738751555  0.5999999381080769  0.7402473774571092
  0.4999999738751555  0.5999999381080769  0.6259065526577245
 
  0.00000000E+00  0.00000000E+00  0.00000000E+00
  0.00000000E+00  0.00000000E+00  0.00000000E+00
