Ag                                      
   1.00000000000000     
    20.0000000000000000    0.0000000000000000    0.0000000000000000
     0.0000000000000000   20.0000000000000000    0.0000000000000000
     0.0000000000000000    0.0000000000000000   20.0000000000000000
   Ag
     8
Direct
  0.4387046289351133  0.4005502716862424  0.4868807941735085
  0.5744670260958600  0.5747112929676419  0.4147815904716339
  0.5633913843477387  0.4444670358391676  0.4596486039908285
  0.3842116845784602  0.5220203649268100  0.5372399355184285
  0.4937812543274518  0.5997705544091616  0.5241126304633283
  0.6157541607317469  0.5387020372432048  0.5460978110182992
  0.5043820467401545  0.4727950631893947  0.5845873591957726
  0.4515763815034788  0.5188022607233833  0.4166245158281967
 
  0.00000000E+00  0.00000000E+00  0.00000000E+00
  0.00000000E+00  0.00000000E+00  0.00000000E+00
  0.00000000E+00  0.00000000E+00  0.00000000E+00
  0.00000000E+00  0.00000000E+00  0.00000000E+00
  0.00000000E+00  0.00000000E+00  0.00000000E+00
  0.00000000E+00  0.00000000E+00  0.00000000E+00
  0.00000000E+00  0.00000000E+00  0.00000000E+00
  0.00000000E+00  0.00000000E+00  0.00000000E+00
