Au                                      
   1.0000000000000000     
    20.0000000000000000    0.0000000000000000    0.0000000000000000
     0.0000000000000000   20.0000000000000000    0.0000000000000000
     0.0000000000000000    0.0000000000000000   20.0000000000000000
   Au
     8
Direct
  0.5873149350860651  0.5212512688427815  0.5350861620751676
  0.5940072587761114  0.4498391375191143  0.6438219180188740
  0.4055574163752839  0.5510000126701040  0.3561642943615727
  0.3648338302692175  0.3939966391136671  0.5509153779401754
  0.4125845508574535  0.4789145253665916  0.4644400666975729
  0.5155541825994500  0.5599738080703238  0.4253277990320463
  0.6351690488558335  0.6059899589951284  0.4485037843371745
  0.4842962469355766  0.4403007653422927  0.5742972298974094

  0.00000000E+00  0.00000000E+00  0.00000000E+00
  0.00000000E+00  0.00000000E+00  0.00000000E+00
  0.00000000E+00  0.00000000E+00  0.00000000E+00
  0.00000000E+00  0.00000000E+00  0.00000000E+00
  0.00000000E+00  0.00000000E+00  0.00000000E+00
  0.00000000E+00  0.00000000E+00  0.00000000E+00
  0.00000000E+00  0.00000000E+00  0.00000000E+00
  0.00000000E+00  0.00000000E+00  0.00000000E+00
