Au                                      
   1.0000000000000000     
    20.0000000000000000    0.0000000000000000    0.0000000000000000
     0.0000000000000000   20.0000000000000000    0.0000000000000000
     0.0000000000000000    0.0000000000000000   20.0000000000000000
   Au
     6
Direct
  0.5861145187964242  0.4990779153750542  0.4648372899883441
  0.5426117270130100  0.3769606206038287  0.4494179764066278
  0.4575088756870007  0.4618587461189626  0.5003505004864206
  0.4992361803258548  0.5926458832104903  0.5187145663264504
  0.6212817119660466  0.6233152698005987  0.4840298152113675
  0.3789260659866690  0.5532320153060666  0.5505058308407907

  0.00000000E+00  0.00000000E+00  0.00000000E+00
  0.00000000E+00  0.00000000E+00  0.00000000E+00
  0.00000000E+00  0.00000000E+00  0.00000000E+00
  0.00000000E+00  0.00000000E+00  0.00000000E+00
  0.00000000E+00  0.00000000E+00  0.00000000E+00
  0.00000000E+00  0.00000000E+00  0.00000000E+00
