Ag Mg  O                                
   1.00000000000000     
    21.1388521970183838    0.0000000000000000    0.0000000000000000
     0.0000000000000000   21.1388521970183838    0.0000000000000000
     0.0000000000000000    0.0000000000000000   22.1138852197018352
   Ag
     4
Selective dynamics
Direct
  0.2856246106738283  0.5052854285088202  0.6298579694696613   T   T   T
  0.3975153184834852  0.4413097874790495  0.6217237295397169   T   T   T
  0.3977827591395240  0.5677713687358050  0.6153785182483986   T   T   T
  0.5097725447861947  0.5045278934791924  0.6286852358130872   T   T   T
 
  0.00000000E+00  0.00000000E+00  0.00000000E+00
  0.00000000E+00  0.00000000E+00  0.00000000E+00
  0.00000000E+00  0.00000000E+00  0.00000000E+00
  0.00000000E+00  0.00000000E+00  0.00000000E+00
