Cu                                      
   1.0000000000000000     
    20.0000000000000000    0.0000000000000000    0.0000000000000000
     0.0000000000000000   20.0000000000000000    0.0000000000000000
     0.0000000000000000    0.0000000000000000   20.0000000000000000
   Cu
     6
Direct
  0.5501809469942075  0.5145717424551711  0.5342510983464479
  0.4761339666720888  0.5916183071027564  0.4749744698347726
  0.5478222335019856  0.4080365582948405  0.4823992610101554
  0.5337134559483347  0.5093299012406902  0.4132830127296617
  0.4501044482890988  0.4738688252303487  0.4951916512427708
  0.4497402042542809  0.5483676515811954  0.5874044614861939

  0.00000000E+00  0.00000000E+00  0.00000000E+00
  0.00000000E+00  0.00000000E+00  0.00000000E+00
  0.00000000E+00  0.00000000E+00  0.00000000E+00
  0.00000000E+00  0.00000000E+00  0.00000000E+00
  0.00000000E+00  0.00000000E+00  0.00000000E+00
  0.00000000E+00  0.00000000E+00  0.00000000E+00
