Cu                                      
   1.0000000000000000     
    20.0000000000000000    0.0000000000000000    0.0000000000000000
     0.0000000000000000   20.0000000000000000    0.0000000000000000
     0.0000000000000000    0.0000000000000000   20.0000000000000000
   Cu
     6
Direct
  0.4638616045081338  0.3629438603956241  0.5390414335903471
  0.5268074329168052  0.5243548437252599  0.4546383028275390
  0.4731470779478388  0.4756748703750379  0.5454371315605703
  0.5190290086898682  0.4100653655977856  0.4452282411834536
  0.5361241651430343  0.6370774397109081  0.4609110589786864
  0.4809623960243144  0.5899649681053820  0.5547535413444028

  0.00000000E+00  0.00000000E+00  0.00000000E+00
  0.00000000E+00  0.00000000E+00  0.00000000E+00
  0.00000000E+00  0.00000000E+00  0.00000000E+00
  0.00000000E+00  0.00000000E+00  0.00000000E+00
  0.00000000E+00  0.00000000E+00  0.00000000E+00
  0.00000000E+00  0.00000000E+00  0.00000000E+00
