cu4                                     
   1.00000000000000     
    20.0000000000000000    0.0000000000000000    0.0000000000000000
     0.0000000000000000   20.0000000000000000    0.0000000000000000
     0.0000000000000000    0.0000000000000000   20.0000000000000000
   Cu
     4
Direct
  0.9756196806658366  0.0947794890420894  0.9997362711050855
  0.9638888328090331  0.8756879630466869  0.9583329298046124
  0.9935905344757998  0.9779118887773706  0.9925961017417819
  0.0669009520493304  0.0516206591338531  0.0493346973485203
 
  0.00000000E+00  0.00000000E+00  0.00000000E+00
  0.00000000E+00  0.00000000E+00  0.00000000E+00
  0.00000000E+00  0.00000000E+00  0.00000000E+00
  0.00000000E+00  0.00000000E+00  0.00000000E+00
