Cu                                      
   1.0000000000000000     
    20.0000000000000000    0.0000000000000000    0.0000000000000000
     0.0000000000000000   20.0000000000000000    0.0000000000000000
     0.0000000000000000    0.0000000000000000   20.0000000000000000
   Cu
     6
Direct
  0.3937038726444300  0.4712226821456795  0.5535579085299887
  0.4696374149023583  0.5414902057893300  0.5004212339291385
  0.5791368397925183  0.5001783637547348  0.4750357901270164
  0.4997272625945257  0.4295144458703746  0.5302203885285834
  0.5479037005293392  0.6085796489690622  0.4465192347737457
  0.6066478997768243  0.3912268907758190  0.5050848187615244

  0.00000000E+00  0.00000000E+00  0.00000000E+00
  0.00000000E+00  0.00000000E+00  0.00000000E+00
  0.00000000E+00  0.00000000E+00  0.00000000E+00
  0.00000000E+00  0.00000000E+00  0.00000000E+00
  0.00000000E+00  0.00000000E+00  0.00000000E+00
  0.00000000E+00  0.00000000E+00  0.00000000E+00
