au4                                     
   1.00000000000000     
    20.0000000000000000    0.0000000000000000    0.0000000000000000
     0.0000000000000000   20.0000000000000000    0.0000000000000000
     0.0000000000000000    0.0000000000000000   20.0000000000000000
   Au
     4
Direct
  0.0326092779811447  0.0112814342011731  0.0654577032021848
  0.9662565126544180  0.9822380596050451  0.9348132200299446
  0.9413221992991154  0.9239783300848075  0.0711171670641448
  0.8983816600653327  0.0547478761089693  0.0129608097037206
 
  0.00000000E+00  0.00000000E+00  0.00000000E+00
  0.00000000E+00  0.00000000E+00  0.00000000E+00
  0.00000000E+00  0.00000000E+00  0.00000000E+00
  0.00000000E+00  0.00000000E+00  0.00000000E+00
