Cu                                      
   1.0000000000000000     
    20.0000000000000000    0.0000000000000000    0.0000000000000000
     0.0000000000000000   20.0000000000000000    0.0000000000000000
     0.0000000000000000    0.0000000000000000   20.0000000000000000
   Cu
     8
Direct
  0.4527160049306076  0.4963272360909414  0.5694468888078958
  0.5841955562405516  0.5148621015941472  0.4872891687317420
  0.5177571236223670  0.4685516526126392  0.4010568798782614
  0.5303161110497143  0.5879103871533928  0.5660509364250501
  0.4727254671565433  0.5582640841063125  0.4670409052580595
  0.5670348615251299  0.4739963512412828  0.5989784953340234
  0.5188979983583266  0.4148215590588364  0.5085787236407668
  0.4133304221767773  0.4537512087624549  0.4663945659841957

  0.00000000E+00  0.00000000E+00  0.00000000E+00
  0.00000000E+00  0.00000000E+00  0.00000000E+00
  0.00000000E+00  0.00000000E+00  0.00000000E+00
  0.00000000E+00  0.00000000E+00  0.00000000E+00
  0.00000000E+00  0.00000000E+00  0.00000000E+00
  0.00000000E+00  0.00000000E+00  0.00000000E+00
  0.00000000E+00  0.00000000E+00  0.00000000E+00
  0.00000000E+00  0.00000000E+00  0.00000000E+00
