Cu                                      
   1.0000000000000000     
    20.0000000000000000    0.0000000000000000    0.0000000000000000
     0.0000000000000000   20.0000000000000000    0.0000000000000000
     0.0000000000000000    0.0000000000000000   20.0000000000000000
   Cu
     6
Direct
  0.4058648850853016  0.4997928204383883  0.5128184800503320
  0.4715436030814225  0.5879636645781045  0.4617838678012531
  0.5880436707254769  0.5545080221161989  0.4648135233497820
  0.5942406128552771  0.4457405993645309  0.5180048389258133
  0.4816442252582996  0.4117330215914437  0.5473962174235627
  0.5028389887242152  0.4764578303863369  0.4533208118842526

  0.00000000E+00  0.00000000E+00  0.00000000E+00
  0.00000000E+00  0.00000000E+00  0.00000000E+00
  0.00000000E+00  0.00000000E+00  0.00000000E+00
  0.00000000E+00  0.00000000E+00  0.00000000E+00
  0.00000000E+00  0.00000000E+00  0.00000000E+00
  0.00000000E+00  0.00000000E+00  0.00000000E+00
