Ag Mg  O                                
   1.0000000000000000     
    21.1388521970183838    0.0000000000000000    0.0000000000000000
     0.0000000000000000   21.1388521970183838    0.0000000000000000
     0.0000000000000000    0.0000000000000000   22.1138852197018352
   Ag   Mg   O 
     4   100   100
Selective dynamics
Direct
  0.4000755413971757  0.4285395592330893  0.6103670471379263   T   T   T
  0.4002393247751588  0.5115047205703893  0.6973175796208848   T   T   T
  0.4005743167556541  0.6413294515579135  0.7129242977984035   T   T   T
  0.4002035301410666  0.5899757070888985  0.6044099267002787   T   T   T
  0.0000000000000000  0.0000000000000000  0.4069841147579822   F   F   F
  0.1000000000000014  0.1000000000000014  0.4069841147579822   F   F   F
  0.0000000000000000  0.1000000000000014  0.5025749708513558   F   F   F
  0.1000000000000014  0.0000000000000000  0.5025749708513558   F   F   F
  0.0000000000000000  0.2000000000000028  0.4069841147579822   F   F   F
  0.1000000000000014  0.2999999999999972  0.4069841147579822   F   F   F
  0.0000000000000000  0.2999999999999972  0.5025749708513558   F   F   F
  0.1000000000000014  0.2000000000000028  0.5025749708513558   F   F   F
  0.0000000000000000  0.3999999999999986  0.4069841147579822   F   F   F
  0.1000000000000014  0.5000000000000000  0.4069841147579822   F   F   F
  0.0000000000000000  0.5000000000000000  0.5025749708513558   F   F   F
  0.1000000000000014  0.3999999999999986  0.5025749708513558   F   F   F
  0.0000000000000000  0.6000000000000014  0.4069841147579822   F   F   F
  0.1000000000000014  0.7000000000000028  0.4069841147579822   F   F   F
  0.0000000000000000  0.7000000000000028  0.5025749708513558   F   F   F
  0.1000000000000014  0.6000000000000014  0.5025749708513558   F   F   F
  0.0000000000000000  0.7999999999999972  0.4069841147579822   F   F   F
  0.1000000000000014  0.8999999999999986  0.4069841147579822   F   F   F
  0.0000000000000000  0.8999999999999986  0.5025749708513558   F   F   F
  0.1000000000000014  0.7999999999999972  0.5025749708513558   F   F   F
  0.2000000000000028  0.0000000000000000  0.4069841147579822   F   F   F
  0.2999999999999972  0.1000000000000014  0.4069841147579822   F   F   F
  0.2000000000000028  0.1000000000000014  0.5025749708513558   F   F   F
  0.2999999999999972  0.0000000000000000  0.5025749708513558   F   F   F
  0.2000000000000028  0.2000000000000028  0.4069841147579822   F   F   F
  0.2999999999999972  0.2999999999999972  0.4069841147579822   F   F   F
  0.2000000000000028  0.2999999999999972  0.5025749708513558   F   F   F
  0.2999999999999972  0.2000000000000028  0.5025749708513558   F   F   F
  0.2000000000000028  0.3999999999999986  0.4069841147579822   F   F   F
  0.2999999999999972  0.5000000000000000  0.4069841147579822   F   F   F
  0.2000000000000028  0.5000000000000000  0.5025749708513558   F   F   F
  0.2999999999999972  0.3999999999999986  0.5025749708513558   F   F   F
  0.2000000000000028  0.6000000000000014  0.4069841147579822   F   F   F
  0.2999999999999972  0.7000000000000028  0.4069841147579822   F   F   F
  0.2000000000000028  0.7000000000000028  0.5025749708513558   F   F   F
  0.2999999999999972  0.6000000000000014  0.5025749708513558   F   F   F
  0.2000000000000028  0.7999999999999972  0.4069841147579822   F   F   F
  0.2999999999999972  0.8999999999999986  0.4069841147579822   F   F   F
  0.2000000000000028  0.8999999999999986  0.5025749708513558   F   F   F
  0.2999999999999972  0.7999999999999972  0.5025749708513558   F   F   F
  0.3999999999999986  0.0000000000000000  0.4069841147579822   F   F   F
  0.5000000000000000  0.1000000000000014  0.4069841147579822   F   F   F
  0.3999999999999986  0.1000000000000014  0.5025749708513558   F   F   F
  0.5000000000000000  0.0000000000000000  0.5025749708513558   F   F   F
  0.3999999999999986  0.2000000000000028  0.4069841147579822   F   F   F
  0.5000000000000000  0.2999999999999972  0.4069841147579822   F   F   F
  0.3999999999999986  0.2999999999999972  0.5025749708513558   F   F   F
  0.5000000000000000  0.2000000000000028  0.5025749708513558   F   F   F
  0.3999999999999986  0.3999999999999986  0.4069841147579822   F   F   F
  0.5000000000000000  0.5000000000000000  0.4069841147579822   F   F   F
  0.3999999999999986  0.5000000000000000  0.5025749708513558   F   F   F
  0.5000000000000000  0.3999999999999986  0.5025749708513558   F   F   F
  0.3999999999999986  0.6000000000000014  0.4069841147579822   F   F   F
  0.5000000000000000  0.7000000000000028  0.4069841147579822   F   F   F
  0.3999999999999986  0.7000000000000028  0.5025749708513558   F   F   F
  0.5000000000000000  0.6000000000000014  0.5025749708513558   F   F   F
  0.3999999999999986  0.7999999999999972  0.4069841147579822   F   F   F
  0.5000000000000000  0.8999999999999986  0.4069841147579822   F   F   F
  0.3999999999999986  0.8999999999999986  0.5025749708513558   F   F   F
  0.5000000000000000  0.7999999999999972  0.5025749708513558   F   F   F
  0.6000000000000014  0.0000000000000000  0.4069841147579822   F   F   F
  0.7000000000000028  0.1000000000000014  0.4069841147579822   F   F   F
  0.6000000000000014  0.1000000000000014  0.5025749708513558   F   F   F
  0.7000000000000028  0.0000000000000000  0.5025749708513558   F   F   F
  0.6000000000000014  0.2000000000000028  0.4069841147579822   F   F   F
  0.7000000000000028  0.2999999999999972  0.4069841147579822   F   F   F
  0.6000000000000014  0.2999999999999972  0.5025749708513558   F   F   F
  0.7000000000000028  0.2000000000000028  0.5025749708513558   F   F   F
  0.6000000000000014  0.3999999999999986  0.4069841147579822   F   F   F
  0.7000000000000028  0.5000000000000000  0.4069841147579822   F   F   F
  0.6000000000000014  0.5000000000000000  0.5025749708513558   F   F   F
  0.7000000000000028  0.3999999999999986  0.5025749708513558   F   F   F
  0.6000000000000014  0.6000000000000014  0.4069841147579822   F   F   F
  0.7000000000000028  0.7000000000000028  0.4069841147579822   F   F   F
  0.6000000000000014  0.7000000000000028  0.5025749708513558   F   F   F
  0.7000000000000028  0.6000000000000014  0.5025749708513558   F   F   F
  0.6000000000000014  0.7999999999999972  0.4069841147579822   F   F   F
  0.7000000000000028  0.8999999999999986  0.4069841147579822   F   F   F
  0.6000000000000014  0.8999999999999986  0.5025749708513558   F   F   F
  0.7000000000000028  0.7999999999999972  0.5025749708513558   F   F   F
  0.7999999999999972  0.0000000000000000  0.4069841147579822   F   F   F
  0.8999999999999986  0.1000000000000014  0.4069841147579822   F   F   F
  0.7999999999999972  0.1000000000000014  0.5025749708513558   F   F   F
  0.8999999999999986  0.0000000000000000  0.5025749708513558   F   F   F
  0.7999999999999972  0.2000000000000028  0.4069841147579822   F   F   F
  0.8999999999999986  0.2999999999999972  0.4069841147579822   F   F   F
  0.7999999999999972  0.2999999999999972  0.5025749708513558   F   F   F
  0.8999999999999986  0.2000000000000028  0.5025749708513558   F   F   F
  0.7999999999999972  0.3999999999999986  0.4069841147579822   F   F   F
  0.8999999999999986  0.5000000000000000  0.4069841147579822   F   F   F
  0.7999999999999972  0.5000000000000000  0.5025749708513558   F   F   F
  0.8999999999999986  0.3999999999999986  0.5025749708513558   F   F   F
  0.7999999999999972  0.6000000000000014  0.4069841147579822   F   F   F
  0.8999999999999986  0.7000000000000028  0.4069841147579822   F   F   F
  0.7999999999999972  0.7000000000000028  0.5025749708513558   F   F   F
  0.8999999999999986  0.6000000000000014  0.5025749708513558   F   F   F
  0.7999999999999972  0.7999999999999972  0.4069841147579822   F   F   F
  0.8999999999999986  0.8999999999999986  0.4069841147579822   F   F   F
  0.7999999999999972  0.8999999999999986  0.5025749708513558   F   F   F
  0.8999999999999986  0.7999999999999972  0.5025749708513558   F   F   F
  0.0000000000000000  0.0000000000000000  0.5025749708513558   F   F   F
  0.1000000000000014  0.1000000000000014  0.5025749708513558   F   F   F
  0.0000000000000000  0.1000000000000014  0.4069841147579822   F   F   F
  0.1000000000000014  0.0000000000000000  0.4069841147579822   F   F   F
  0.0000000000000000  0.2000000000000028  0.5025749708513558   F   F   F
  0.1000000000000014  0.2999999999999972  0.5025749708513558   F   F   F
  0.0000000000000000  0.2999999999999972  0.4069841147579822   F   F   F
  0.1000000000000014  0.2000000000000028  0.4069841147579822   F   F   F
  0.0000000000000000  0.3999999999999986  0.5025749708513558   F   F   F
  0.1000000000000014  0.5000000000000000  0.5025749708513558   F   F   F
  0.0000000000000000  0.5000000000000000  0.4069841147579822   F   F   F
  0.1000000000000014  0.3999999999999986  0.4069841147579822   F   F   F
  0.0000000000000000  0.6000000000000014  0.5025749708513558   F   F   F
  0.1000000000000014  0.7000000000000028  0.5025749708513558   F   F   F
  0.0000000000000000  0.7000000000000028  0.4069841147579822   F   F   F
  0.1000000000000014  0.6000000000000014  0.4069841147579822   F   F   F
  0.0000000000000000  0.7999999999999972  0.5025749708513558   F   F   F
  0.1000000000000014  0.8999999999999986  0.5025749708513558   F   F   F
  0.0000000000000000  0.8999999999999986  0.4069841147579822   F   F   F
  0.1000000000000014  0.7999999999999972  0.4069841147579822   F   F   F
  0.2000000000000028  0.0000000000000000  0.5025749708513558   F   F   F
  0.2999999999999972  0.1000000000000014  0.5025749708513558   F   F   F
  0.2000000000000028  0.1000000000000014  0.4069841147579822   F   F   F
  0.2999999999999972  0.0000000000000000  0.4069841147579822   F   F   F
  0.2000000000000028  0.2000000000000028  0.5025749708513558   F   F   F
  0.2999999999999972  0.2999999999999972  0.5025749708513558   F   F   F
  0.2000000000000028  0.2999999999999972  0.4069841147579822   F   F   F
  0.2999999999999972  0.2000000000000028  0.4069841147579822   F   F   F
  0.2000000000000028  0.3999999999999986  0.5025749708513558   F   F   F
  0.2999999999999972  0.5000000000000000  0.5025749708513558   F   F   F
  0.2000000000000028  0.5000000000000000  0.4069841147579822   F   F   F
  0.2999999999999972  0.3999999999999986  0.4069841147579822   F   F   F
  0.2000000000000028  0.6000000000000014  0.5025749708513558   F   F   F
  0.2999999999999972  0.7000000000000028  0.5025749708513558   F   F   F
  0.2000000000000028  0.7000000000000028  0.4069841147579822   F   F   F
  0.2999999999999972  0.6000000000000014  0.4069841147579822   F   F   F
  0.2000000000000028  0.7999999999999972  0.5025749708513558   F   F   F
  0.2999999999999972  0.8999999999999986  0.5025749708513558   F   F   F
  0.2000000000000028  0.8999999999999986  0.4069841147579822   F   F   F
  0.2999999999999972  0.7999999999999972  0.4069841147579822   F   F   F
  0.3999999999999986  0.0000000000000000  0.5025749708513558   F   F   F
  0.5000000000000000  0.1000000000000014  0.5025749708513558   F   F   F
  0.3999999999999986  0.1000000000000014  0.4069841147579822   F   F   F
  0.5000000000000000  0.0000000000000000  0.4069841147579822   F   F   F
  0.3999999999999986  0.2000000000000028  0.5025749708513558   F   F   F
  0.5000000000000000  0.2999999999999972  0.5025749708513558   F   F   F
  0.3999999999999986  0.2999999999999972  0.4069841147579822   F   F   F
  0.5000000000000000  0.2000000000000028  0.4069841147579822   F   F   F
  0.3999999999999986  0.3999999999999986  0.5025749708513558   F   F   F
  0.5000000000000000  0.5000000000000000  0.5025749708513558   F   F   F
  0.3999999999999986  0.5000000000000000  0.4069841147579822   F   F   F
  0.5000000000000000  0.3999999999999986  0.4069841147579822   F   F   F
  0.3999999999999986  0.6000000000000014  0.5025749708513558   F   F   F
  0.5000000000000000  0.7000000000000028  0.5025749708513558   F   F   F
  0.3999999999999986  0.7000000000000028  0.4069841147579822   F   F   F
  0.5000000000000000  0.6000000000000014  0.4069841147579822   F   F   F
  0.3999999999999986  0.7999999999999972  0.5025749708513558   F   F   F
  0.5000000000000000  0.8999999999999986  0.5025749708513558   F   F   F
  0.3999999999999986  0.8999999999999986  0.4069841147579822   F   F   F
  0.5000000000000000  0.7999999999999972  0.4069841147579822   F   F   F
  0.6000000000000014  0.0000000000000000  0.5025749708513558   F   F   F
  0.7000000000000028  0.1000000000000014  0.5025749708513558   F   F   F
  0.6000000000000014  0.1000000000000014  0.4069841147579822   F   F   F
  0.7000000000000028  0.0000000000000000  0.4069841147579822   F   F   F
  0.6000000000000014  0.2000000000000028  0.5025749708513558   F   F   F
  0.7000000000000028  0.2999999999999972  0.5025749708513558   F   F   F
  0.6000000000000014  0.2999999999999972  0.4069841147579822   F   F   F
  0.7000000000000028  0.2000000000000028  0.4069841147579822   F   F   F
  0.6000000000000014  0.3999999999999986  0.5025749708513558   F   F   F
  0.7000000000000028  0.5000000000000000  0.5025749708513558   F   F   F
  0.6000000000000014  0.5000000000000000  0.4069841147579822   F   F   F
  0.7000000000000028  0.3999999999999986  0.4069841147579822   F   F   F
  0.6000000000000014  0.6000000000000014  0.5025749708513558   F   F   F
  0.7000000000000028  0.7000000000000028  0.5025749708513558   F   F   F
  0.6000000000000014  0.7000000000000028  0.4069841147579822   F   F   F
  0.7000000000000028  0.6000000000000014  0.4069841147579822   F   F   F
  0.6000000000000014  0.7999999999999972  0.5025749708513558   F   F   F
  0.7000000000000028  0.8999999999999986  0.5025749708513558   F   F   F
  0.6000000000000014  0.8999999999999986  0.4069841147579822   F   F   F
  0.7000000000000028  0.7999999999999972  0.4069841147579822   F   F   F
  0.7999999999999972  0.0000000000000000  0.5025749708513558   F   F   F
  0.8999999999999986  0.1000000000000014  0.5025749708513558   F   F   F
  0.7999999999999972  0.1000000000000014  0.4069841147579822   F   F   F
  0.8999999999999986  0.0000000000000000  0.4069841147579822   F   F   F
  0.7999999999999972  0.2000000000000028  0.5025749708513558   F   F   F
  0.8999999999999986  0.2999999999999972  0.5025749708513558   F   F   F
  0.7999999999999972  0.2999999999999972  0.4069841147579822   F   F   F
  0.8999999999999986  0.2000000000000028  0.4069841147579822   F   F   F
  0.7999999999999972  0.3999999999999986  0.5025749708513558   F   F   F
  0.8999999999999986  0.5000000000000000  0.5025749708513558   F   F   F
  0.7999999999999972  0.5000000000000000  0.4069841147579822   F   F   F
  0.8999999999999986  0.3999999999999986  0.4069841147579822   F   F   F
  0.7999999999999972  0.6000000000000014  0.5025749708513558   F   F   F
  0.8999999999999986  0.7000000000000028  0.5025749708513558   F   F   F
  0.7999999999999972  0.7000000000000028  0.4069841147579822   F   F   F
  0.8999999999999986  0.6000000000000014  0.4069841147579822   F   F   F
  0.7999999999999972  0.7999999999999972  0.5025749708513558   F   F   F
  0.8999999999999986  0.8999999999999986  0.5025749708513558   F   F   F
  0.7999999999999972  0.8999999999999986  0.4069841147579822   F   F   F
  0.8999999999999986  0.7999999999999972  0.4069841147579822   F   F   F

  0.00000000E+00  0.00000000E+00  0.00000000E+00
  0.00000000E+00  0.00000000E+00  0.00000000E+00
  0.00000000E+00  0.00000000E+00  0.00000000E+00
  0.00000000E+00  0.00000000E+00  0.00000000E+00
  0.00000000E+00  0.00000000E+00  0.00000000E+00
  0.00000000E+00  0.00000000E+00  0.00000000E+00
  0.00000000E+00  0.00000000E+00  0.00000000E+00
  0.00000000E+00  0.00000000E+00  0.00000000E+00
  0.00000000E+00  0.00000000E+00  0.00000000E+00
  0.00000000E+00  0.00000000E+00  0.00000000E+00
  0.00000000E+00  0.00000000E+00  0.00000000E+00
  0.00000000E+00  0.00000000E+00  0.00000000E+00
  0.00000000E+00  0.00000000E+00  0.00000000E+00
  0.00000000E+00  0.00000000E+00  0.00000000E+00
  0.00000000E+00  0.00000000E+00  0.00000000E+00
  0.00000000E+00  0.00000000E+00  0.00000000E+00
  0.00000000E+00  0.00000000E+00  0.00000000E+00
  0.00000000E+00  0.00000000E+00  0.00000000E+00
  0.00000000E+00  0.00000000E+00  0.00000000E+00
  0.00000000E+00  0.00000000E+00  0.00000000E+00
  0.00000000E+00  0.00000000E+00  0.00000000E+00
  0.00000000E+00  0.00000000E+00  0.00000000E+00
  0.00000000E+00  0.00000000E+00  0.00000000E+00
  0.00000000E+00  0.00000000E+00  0.00000000E+00
  0.00000000E+00  0.00000000E+00  0.00000000E+00
  0.00000000E+00  0.00000000E+00  0.00000000E+00
  0.00000000E+00  0.00000000E+00  0.00000000E+00
  0.00000000E+00  0.00000000E+00  0.00000000E+00
  0.00000000E+00  0.00000000E+00  0.00000000E+00
  0.00000000E+00  0.00000000E+00  0.00000000E+00
  0.00000000E+00  0.00000000E+00  0.00000000E+00
  0.00000000E+00  0.00000000E+00  0.00000000E+00
  0.00000000E+00  0.00000000E+00  0.00000000E+00
  0.00000000E+00  0.00000000E+00  0.00000000E+00
  0.00000000E+00  0.00000000E+00  0.00000000E+00
  0.00000000E+00  0.00000000E+00  0.00000000E+00
  0.00000000E+00  0.00000000E+00  0.00000000E+00
  0.00000000E+00  0.00000000E+00  0.00000000E+00
  0.00000000E+00  0.00000000E+00  0.00000000E+00
  0.00000000E+00  0.00000000E+00  0.00000000E+00
  0.00000000E+00  0.00000000E+00  0.00000000E+00
  0.00000000E+00  0.00000000E+00  0.00000000E+00
  0.00000000E+00  0.00000000E+00  0.00000000E+00
  0.00000000E+00  0.00000000E+00  0.00000000E+00
  0.00000000E+00  0.00000000E+00  0.00000000E+00
  0.00000000E+00  0.00000000E+00  0.00000000E+00
  0.00000000E+00  0.00000000E+00  0.00000000E+00
  0.00000000E+00  0.00000000E+00  0.00000000E+00
  0.00000000E+00  0.00000000E+00  0.00000000E+00
  0.00000000E+00  0.00000000E+00  0.00000000E+00
  0.00000000E+00  0.00000000E+00  0.00000000E+00
  0.00000000E+00  0.00000000E+00  0.00000000E+00
  0.00000000E+00  0.00000000E+00  0.00000000E+00
  0.00000000E+00  0.00000000E+00  0.00000000E+00
  0.00000000E+00  0.00000000E+00  0.00000000E+00
  0.00000000E+00  0.00000000E+00  0.00000000E+00
  0.00000000E+00  0.00000000E+00  0.00000000E+00
  0.00000000E+00  0.00000000E+00  0.00000000E+00
  0.00000000E+00  0.00000000E+00  0.00000000E+00
  0.00000000E+00  0.00000000E+00  0.00000000E+00
  0.00000000E+00  0.00000000E+00  0.00000000E+00
  0.00000000E+00  0.00000000E+00  0.00000000E+00
  0.00000000E+00  0.00000000E+00  0.00000000E+00
  0.00000000E+00  0.00000000E+00  0.00000000E+00
  0.00000000E+00  0.00000000E+00  0.00000000E+00
  0.00000000E+00  0.00000000E+00  0.00000000E+00
  0.00000000E+00  0.00000000E+00  0.00000000E+00
  0.00000000E+00  0.00000000E+00  0.00000000E+00
  0.00000000E+00  0.00000000E+00  0.00000000E+00
  0.00000000E+00  0.00000000E+00  0.00000000E+00
  0.00000000E+00  0.00000000E+00  0.00000000E+00
  0.00000000E+00  0.00000000E+00  0.00000000E+00
  0.00000000E+00  0.00000000E+00  0.00000000E+00
  0.00000000E+00  0.00000000E+00  0.00000000E+00
  0.00000000E+00  0.00000000E+00  0.00000000E+00
  0.00000000E+00  0.00000000E+00  0.00000000E+00
  0.00000000E+00  0.00000000E+00  0.00000000E+00
  0.00000000E+00  0.00000000E+00  0.00000000E+00
  0.00000000E+00  0.00000000E+00  0.00000000E+00
  0.00000000E+00  0.00000000E+00  0.00000000E+00
  0.00000000E+00  0.00000000E+00  0.00000000E+00
  0.00000000E+00  0.00000000E+00  0.00000000E+00
  0.00000000E+00  0.00000000E+00  0.00000000E+00
  0.00000000E+00  0.00000000E+00  0.00000000E+00
  0.00000000E+00  0.00000000E+00  0.00000000E+00
  0.00000000E+00  0.00000000E+00  0.00000000E+00
  0.00000000E+00  0.00000000E+00  0.00000000E+00
  0.00000000E+00  0.00000000E+00  0.00000000E+00
  0.00000000E+00  0.00000000E+00  0.00000000E+00
  0.00000000E+00  0.00000000E+00  0.00000000E+00
  0.00000000E+00  0.00000000E+00  0.00000000E+00
  0.00000000E+00  0.00000000E+00  0.00000000E+00
  0.00000000E+00  0.00000000E+00  0.00000000E+00
  0.00000000E+00  0.00000000E+00  0.00000000E+00
  0.00000000E+00  0.00000000E+00  0.00000000E+00
  0.00000000E+00  0.00000000E+00  0.00000000E+00
  0.00000000E+00  0.00000000E+00  0.00000000E+00
  0.00000000E+00  0.00000000E+00  0.00000000E+00
  0.00000000E+00  0.00000000E+00  0.00000000E+00
  0.00000000E+00  0.00000000E+00  0.00000000E+00
  0.00000000E+00  0.00000000E+00  0.00000000E+00
  0.00000000E+00  0.00000000E+00  0.00000000E+00
  0.00000000E+00  0.00000000E+00  0.00000000E+00
  0.00000000E+00  0.00000000E+00  0.00000000E+00
  0.00000000E+00  0.00000000E+00  0.00000000E+00
  0.00000000E+00  0.00000000E+00  0.00000000E+00
  0.00000000E+00  0.00000000E+00  0.00000000E+00
  0.00000000E+00  0.00000000E+00  0.00000000E+00
  0.00000000E+00  0.00000000E+00  0.00000000E+00
  0.00000000E+00  0.00000000E+00  0.00000000E+00
  0.00000000E+00  0.00000000E+00  0.00000000E+00
  0.00000000E+00  0.00000000E+00  0.00000000E+00
  0.00000000E+00  0.00000000E+00  0.00000000E+00
  0.00000000E+00  0.00000000E+00  0.00000000E+00
  0.00000000E+00  0.00000000E+00  0.00000000E+00
  0.00000000E+00  0.00000000E+00  0.00000000E+00
  0.00000000E+00  0.00000000E+00  0.00000000E+00
  0.00000000E+00  0.00000000E+00  0.00000000E+00
  0.00000000E+00  0.00000000E+00  0.00000000E+00
  0.00000000E+00  0.00000000E+00  0.00000000E+00
  0.00000000E+00  0.00000000E+00  0.00000000E+00
  0.00000000E+00  0.00000000E+00  0.00000000E+00
  0.00000000E+00  0.00000000E+00  0.00000000E+00
  0.00000000E+00  0.00000000E+00  0.00000000E+00
  0.00000000E+00  0.00000000E+00  0.00000000E+00
  0.00000000E+00  0.00000000E+00  0.00000000E+00
  0.00000000E+00  0.00000000E+00  0.00000000E+00
  0.00000000E+00  0.00000000E+00  0.00000000E+00
  0.00000000E+00  0.00000000E+00  0.00000000E+00
  0.00000000E+00  0.00000000E+00  0.00000000E+00
  0.00000000E+00  0.00000000E+00  0.00000000E+00
  0.00000000E+00  0.00000000E+00  0.00000000E+00
  0.00000000E+00  0.00000000E+00  0.00000000E+00
  0.00000000E+00  0.00000000E+00  0.00000000E+00
  0.00000000E+00  0.00000000E+00  0.00000000E+00
  0.00000000E+00  0.00000000E+00  0.00000000E+00
  0.00000000E+00  0.00000000E+00  0.00000000E+00
  0.00000000E+00  0.00000000E+00  0.00000000E+00
  0.00000000E+00  0.00000000E+00  0.00000000E+00
  0.00000000E+00  0.00000000E+00  0.00000000E+00
  0.00000000E+00  0.00000000E+00  0.00000000E+00
  0.00000000E+00  0.00000000E+00  0.00000000E+00
  0.00000000E+00  0.00000000E+00  0.00000000E+00
  0.00000000E+00  0.00000000E+00  0.00000000E+00
  0.00000000E+00  0.00000000E+00  0.00000000E+00
  0.00000000E+00  0.00000000E+00  0.00000000E+00
  0.00000000E+00  0.00000000E+00  0.00000000E+00
  0.00000000E+00  0.00000000E+00  0.00000000E+00
  0.00000000E+00  0.00000000E+00  0.00000000E+00
  0.00000000E+00  0.00000000E+00  0.00000000E+00
  0.00000000E+00  0.00000000E+00  0.00000000E+00
  0.00000000E+00  0.00000000E+00  0.00000000E+00
  0.00000000E+00  0.00000000E+00  0.00000000E+00
  0.00000000E+00  0.00000000E+00  0.00000000E+00
  0.00000000E+00  0.00000000E+00  0.00000000E+00
  0.00000000E+00  0.00000000E+00  0.00000000E+00
  0.00000000E+00  0.00000000E+00  0.00000000E+00
  0.00000000E+00  0.00000000E+00  0.00000000E+00
  0.00000000E+00  0.00000000E+00  0.00000000E+00
  0.00000000E+00  0.00000000E+00  0.00000000E+00
  0.00000000E+00  0.00000000E+00  0.00000000E+00
  0.00000000E+00  0.00000000E+00  0.00000000E+00
  0.00000000E+00  0.00000000E+00  0.00000000E+00
  0.00000000E+00  0.00000000E+00  0.00000000E+00
  0.00000000E+00  0.00000000E+00  0.00000000E+00
  0.00000000E+00  0.00000000E+00  0.00000000E+00
  0.00000000E+00  0.00000000E+00  0.00000000E+00
  0.00000000E+00  0.00000000E+00  0.00000000E+00
  0.00000000E+00  0.00000000E+00  0.00000000E+00
  0.00000000E+00  0.00000000E+00  0.00000000E+00
  0.00000000E+00  0.00000000E+00  0.00000000E+00
  0.00000000E+00  0.00000000E+00  0.00000000E+00
  0.00000000E+00  0.00000000E+00  0.00000000E+00
  0.00000000E+00  0.00000000E+00  0.00000000E+00
  0.00000000E+00  0.00000000E+00  0.00000000E+00
  0.00000000E+00  0.00000000E+00  0.00000000E+00
  0.00000000E+00  0.00000000E+00  0.00000000E+00
  0.00000000E+00  0.00000000E+00  0.00000000E+00
  0.00000000E+00  0.00000000E+00  0.00000000E+00
  0.00000000E+00  0.00000000E+00  0.00000000E+00
  0.00000000E+00  0.00000000E+00  0.00000000E+00
  0.00000000E+00  0.00000000E+00  0.00000000E+00
  0.00000000E+00  0.00000000E+00  0.00000000E+00
  0.00000000E+00  0.00000000E+00  0.00000000E+00
  0.00000000E+00  0.00000000E+00  0.00000000E+00
  0.00000000E+00  0.00000000E+00  0.00000000E+00
  0.00000000E+00  0.00000000E+00  0.00000000E+00
  0.00000000E+00  0.00000000E+00  0.00000000E+00
  0.00000000E+00  0.00000000E+00  0.00000000E+00
  0.00000000E+00  0.00000000E+00  0.00000000E+00
  0.00000000E+00  0.00000000E+00  0.00000000E+00
  0.00000000E+00  0.00000000E+00  0.00000000E+00
  0.00000000E+00  0.00000000E+00  0.00000000E+00
  0.00000000E+00  0.00000000E+00  0.00000000E+00
  0.00000000E+00  0.00000000E+00  0.00000000E+00
  0.00000000E+00  0.00000000E+00  0.00000000E+00
  0.00000000E+00  0.00000000E+00  0.00000000E+00
  0.00000000E+00  0.00000000E+00  0.00000000E+00
  0.00000000E+00  0.00000000E+00  0.00000000E+00
  0.00000000E+00  0.00000000E+00  0.00000000E+00
  0.00000000E+00  0.00000000E+00  0.00000000E+00
  0.00000000E+00  0.00000000E+00  0.00000000E+00
  0.00000000E+00  0.00000000E+00  0.00000000E+00
  0.00000000E+00  0.00000000E+00  0.00000000E+00
