Au Mg  O                                
   1.0000000000000000     
    21.1388521970183838    0.0000000000000000    0.0000000000000000
     0.0000000000000000   21.1388521970183838    0.0000000000000000
     0.0000000000000000    0.0000000000000000   22.1138852197018352
   Au   
     4  
Selective dynamics
Direct
  0.2895820369280370  0.5066118608007386  0.6377345019259093   T   T   T
  0.3968725997656457  0.4418290587980493  0.6178388190022774   T   T   T
  0.3970974370325172  0.5694284936040986  0.6092354940284359   T   T   T
  0.5049154995567603  0.5058234632903207  0.6365835675988913   T   T   T
