Au                                      
   1.0000000000000000     
    20.0000000000000000    0.0000000000000000    0.0000000000000000
     0.0000000000000000   20.0000000000000000    0.0000000000000000
     0.0000000000000000    0.0000000000000000   20.0000000000000000
   Au
     8
Direct
  0.6496549781626094  0.4235583168447709  0.4585658598905228
  0.4337136919761084  0.5751335511178396  0.5164455465389667
  0.3500698680977740  0.5325485705495658  0.6088168602939291
  0.4559773136758435  0.4579483375228030  0.5850182356166950
  0.5627720726542376  0.3850753466593567  0.5580326263845253
  0.5431933350002317  0.4989273374638080  0.4886627707398595
  0.6281805196445197  0.5366368955001196  0.3924072640342645
  0.5193366642886778  0.6146682096067405  0.4239644796112399

  0.00000000E+00  0.00000000E+00  0.00000000E+00
  0.00000000E+00  0.00000000E+00  0.00000000E+00
  0.00000000E+00  0.00000000E+00  0.00000000E+00
  0.00000000E+00  0.00000000E+00  0.00000000E+00
  0.00000000E+00  0.00000000E+00  0.00000000E+00
  0.00000000E+00  0.00000000E+00  0.00000000E+00
  0.00000000E+00  0.00000000E+00  0.00000000E+00
  0.00000000E+00  0.00000000E+00  0.00000000E+00
