Au                                      
   1.0000000000000000     
    20.0000000000000000    0.0000000000000000    0.0000000000000000
     0.0000000000000000   20.0000000000000000    0.0000000000000000
     0.0000000000000000    0.0000000000000000   20.0000000000000000
   Au
     8
Direct
  0.4396871372001101  0.3998199206228534  0.4863939560408710
  0.5736021550380528  0.5746621205431168  0.4137959847145112
  0.5635964894722889  0.4452391617588844  0.4598485763163040
  0.3843329722371394  0.5232062062158107  0.5375702414739436
  0.4944667084967449  0.5995013761888046  0.5237650680139012
  0.6155465376938949  0.5381604738021792  0.5472177645577929
  0.5037598580145399  0.4727961187902494  0.5840780369554039
  0.4512767091072334  0.5184335030631075  0.4173036125872684

  0.00000000E+00  0.00000000E+00  0.00000000E+00
  0.00000000E+00  0.00000000E+00  0.00000000E+00
  0.00000000E+00  0.00000000E+00  0.00000000E+00
  0.00000000E+00  0.00000000E+00  0.00000000E+00
  0.00000000E+00  0.00000000E+00  0.00000000E+00
  0.00000000E+00  0.00000000E+00  0.00000000E+00
  0.00000000E+00  0.00000000E+00  0.00000000E+00
  0.00000000E+00  0.00000000E+00  0.00000000E+00
