Ag Mg  O                                
   1.00000000000000     
    21.1388521970183838    0.0000000000000000    0.0000000000000000
     0.0000000000000000   21.1388521970183838    0.0000000000000000
     0.0000000000000000    0.0000000000000000   22.1138852197018352
   Ag
     4
Selective dynamics
Direct
  0.4002624983770318  0.5626442019749547  0.6117572530176147   T   T   T
  0.4001804059250347  0.4998578966441656  0.8353030092020859   T   T   T
  0.4001017989283895  0.4994670993317456  0.7184991302237265   T   T   T
  0.4001982488960607  0.4362994716288568  0.6116639437938574   T   T   T
 
  0.00000000E+00  0.00000000E+00  0.00000000E+00
  0.00000000E+00  0.00000000E+00  0.00000000E+00
  0.00000000E+00  0.00000000E+00  0.00000000E+00
  0.00000000E+00  0.00000000E+00  0.00000000E+00
