ag4                                     
   1.0000000000000000     
    20.0000000000000000    0.0000000000000000    0.0000000000000000
     0.0000000000000000   20.0000000000000000    0.0000000000000000
     0.0000000000000000    0.0000000000000000   20.0000000000000000
   Ag
     4
Direct
  0.0346464377151436  0.0099175343325128  0.0687094164279062
  0.9644016420355719  0.9836143040005274  0.9314480231917824
  0.9431095850450035  0.9219071350393635  0.0741606450302221
  0.8964119852042848  0.0568067266275984  0.0100308153500843

  0.00000000E+00  0.00000000E+00  0.00000000E+00
  0.00000000E+00  0.00000000E+00  0.00000000E+00
  0.00000000E+00  0.00000000E+00  0.00000000E+00
  0.00000000E+00  0.00000000E+00  0.00000000E+00
