SYSTEM=MgO-rocksalt
ISMEAR=0
SIGMA=0.05
EDIFF=1E-4
ALGO=ALL
ISTART=0
IBRION=-1
NSW=0
ISYM=3

LHFCALC = .TRUE.
GGA     = B5
AEXX    = 0.2
AGGAX   = 0.72
AGGAC   = 0.81
ALDAC   = 0.19

IVDW=13
VDW_S8=2.0293
VDW_A1=0.4087
VDW_A2=4.5381

ENCUT=520
PREC=Normal  #default (Normal) usually safe, structures/energies change little with Accurate
LASPH=.TRUE.
LREAL=Auto
ISPIN=1
NELM=2000
NELMIN=8
NCORE=32
LWAVE=.FALSE.
LCHARG=.FALSE.
