Cu                                      
   1.0000000000000000     
    20.0000000000000000    0.0000000000000000    0.0000000000000000
     0.0000000000000000   20.0000000000000000    0.0000000000000000
     0.0000000000000000    0.0000000000000000   20.0000000000000000
   Cu
     6
Direct
  0.3937038726444312  0.4712226821456819  0.5535579085299859
  0.4696374149023550  0.5414902057893266  0.5004212339291401
  0.5791368397925198  0.5001783637547376  0.4750357901270188
  0.4997272625945279  0.4295144458703732  0.5302203885285807
  0.5479037005293389  0.6085796489690590  0.4465192347737486
  0.6066478997768231  0.3912268907758220  0.5050848187615232

  0.00000000E+00  0.00000000E+00  0.00000000E+00
  0.00000000E+00  0.00000000E+00  0.00000000E+00
  0.00000000E+00  0.00000000E+00  0.00000000E+00
  0.00000000E+00  0.00000000E+00  0.00000000E+00
  0.00000000E+00  0.00000000E+00  0.00000000E+00
  0.00000000E+00  0.00000000E+00  0.00000000E+00
