Mg  O                                   
   1.0000000000000000     
    21.1388521970183838    0.0000000000000000    0.0000000000000000
     0.0000000000000000   21.1388521970183838    0.0000000000000000
     0.0000000000000000    0.0000000000000000   30.0000000000000000
   Au 
    20
Selective dynamics
Direct
  0.4976534300701583  0.4333019184048534  0.6113989055962101   T   T   T
  0.3261910350583856  0.3139292308515084  0.5787384561101451   T   T   T
  0.5575461385106704  0.5445531290212247  0.5920903954261387   T   T   T
  0.5674273974895011  0.3236734130424924  0.6193425004191236   T   T   T
  0.4487370268658923  0.0960419496832448  0.6035883484886502   T   T   T
  0.6372577749846587  0.2139954249468597  0.6179854992789038   T   T   T
  0.5097512584131377  0.2099791653384744  0.6254089331032436   T   T   T
  0.4284835609480988  0.5417294301256340  0.5923080654072369   T   T   T
  0.6854776359699963  0.5489227110986500  0.5966501482839799   T   T   T
  0.5740934718406814  0.0994019147246378  0.6111213493603966   T   T   T
  0.3699835437786705  0.4306513598000296  0.6067705279626121   T   T   T
  0.8195337501286545  0.3349763117152608  0.5920350886867617   T   T   T
  0.4391484955463975  0.3195884813057415  0.6205537497583729   T   T   T
  0.2506553332785825  0.4166128043864873  0.5811646328878693   T   T   T
  0.6946567065275614  0.3279597285132203  0.6094468841805664   T   T   T
  0.6869341381937139  0.1121641337002995  0.5751674441763623   T   T   T
  0.6257400936279368  0.4357823967145807  0.6068002852435876   T   T   T
  0.7558772390446779  0.4440865021557207  0.5960686969952131   T   T   T
  0.4032531952273290  0.2100909332305040  0.5771511131217322   T   T   T
  0.7587922016301216  0.2206182139703558  0.5838574652438898   T   T   T
