Mg  O                                   
   1.0000000000000000     
    21.1388521970183838    0.0000000000000000    0.0000000000000000
     0.0000000000000000   21.1388521970183838    0.0000000000000000
     0.0000000000000000    0.0000000000000000   30.0000000000000000
   Au  
    20 
Selective dynamics
Direct
  0.4308025093558581  0.2267216047391493  0.5826801993645299   T   T   T
  0.5591148535005994  0.2368270404163004  0.5896357084265887   T   T   T
  0.6833835138594472  0.2515826905961154  0.5931214789197470   T   T   T
  0.8093512846233174  0.2595955318196425  0.5963219436193298   T   T   T
  0.4755670018494599  0.3483403824526478  0.5872102620651320   T   T   T
  0.6100585600425231  0.3628308245317518  0.5897976424853640   T   T   T
  0.7484795702080710  0.3726730978944324  0.5927258659820041   T   T   T
  0.5236224305789462  0.4665145828102804  0.5853254589281905   T   T   T
  0.6783421349823713  0.4775304463091224  0.5866746040828549   T   T   T
  0.5949654767610235  0.5756560150141860  0.5798120676199113   T   T   T
  0.4795312046736749  0.2688342280422892  0.6622026308203797   T   T   T
  0.6126637098515076  0.2773659676967260  0.6693870740900151   T   T   T
  0.7450745542409466  0.2971475855733701  0.6720324511543186   T   T   T
  0.5252239851124452  0.3989068079854843  0.6641205804385379   T   T   T
  0.6786770970307708  0.4127036083598901  0.6669823493671986   T   T   T
  0.5945920742854327  0.5149355761151093  0.6582712933440489   T   T   T
  0.5330014658259183  0.3180917476569258  0.7360095806200934   T   T   T
  0.6731111198517600  0.3332238869791465  0.7408143304824697   T   T   T
  0.5949504934170595  0.4463210337897958  0.7341049399486608   T   T   T
  0.5948045949671700  0.3681885127838859  0.8062202739768387   T   T   T
