Au Mg  O                                
   1.0000000000000000     
    21.1388521970183838    0.0000000000000000    0.0000000000000000
     0.0000000000000000   21.1388521970183838    0.0000000000000000
     0.0000000000000000    0.0000000000000000   22.1138852197018352
   Au
     4
Selective dynamics
Direct
  0.3999512008044377  0.4252429537329050  0.6033019755531868   T   T   T
  0.3999572962124063  0.5096751291862418  0.6841795809377516   T   T   T
  0.4000533549375049  0.6325841737763938  0.7131450520288212   T   T   T
  0.3999724663981468  0.6047599388569935  0.5999630435646139   T   T   T

  0.00000000E+00  0.00000000E+00  0.00000000E+00
  0.00000000E+00  0.00000000E+00  0.00000000E+00
  0.00000000E+00  0.00000000E+00  0.00000000E+00
  0.00000000E+00  0.00000000E+00  0.00000000E+00
