au4                                     
   1.0000000000000000     
    20.0000000000000000    0.0000000000000000    0.0000000000000000
     0.0000000000000000   20.0000000000000000    0.0000000000000000
     0.0000000000000000    0.0000000000000000   20.0000000000000000
   Au
     4
Direct
  0.0294911225121147  0.0197213305189696  0.0548010697015237
  0.9704124844338364  0.9803810264233275  0.9452103450782622
  0.9329823818078115  0.9281163962535456  0.0619131631193611
  0.0671140112462374  0.0717812468091596  0.9380754221008530

  0.00000000E+00  0.00000000E+00  0.00000000E+00
  0.00000000E+00  0.00000000E+00  0.00000000E+00
  0.00000000E+00  0.00000000E+00  0.00000000E+00
  0.00000000E+00  0.00000000E+00  0.00000000E+00
