Ag                                      
   1.0000000000000000     
    20.0000000000000000    0.0000000000000000    0.0000000000000000
     0.0000000000000000   20.0000000000000000    0.0000000000000000
     0.0000000000000000    0.0000000000000000   20.0000000000000000
   Ag
     8
Direct
  0.5201910239186063  0.4056644549151258  0.5035990789094029
  0.4149648468641374  0.4770008782670203  0.4500385378195375
  0.4401521648718187  0.4852276610782980  0.5829570947175853
  0.5040689791891566  0.5971844356380700  0.6309857124840050
  0.5846307417299812  0.5170895357916265  0.5533304617041424
  0.4786106281741738  0.5911263053761218  0.4999285564027645
  0.5590081938073084  0.5087351817218391  0.4205117627623451
  0.4539471760398115  0.5811192010618882  0.3689229809452215

  0.00000000E+00  0.00000000E+00  0.00000000E+00
  0.00000000E+00  0.00000000E+00  0.00000000E+00
  0.00000000E+00  0.00000000E+00  0.00000000E+00
  0.00000000E+00  0.00000000E+00  0.00000000E+00
  0.00000000E+00  0.00000000E+00  0.00000000E+00
  0.00000000E+00  0.00000000E+00  0.00000000E+00
  0.00000000E+00  0.00000000E+00  0.00000000E+00
  0.00000000E+00  0.00000000E+00  0.00000000E+00
