Au                                      
   1.00000000000000     
    21.1388521970183838    0.0000000000000000    0.0000000000000000
     0.0000000000000000   21.1388521970183838    0.0000000000000000
     0.0000000000000000    0.0000000000000000   22.1138852197018352
   Au
     2
Direct
  0.6607314513810536  0.5000000001879528  0.6135783895939326
  0.5392684774606948  0.5000000001879528  0.6135783895939326
 
  0.00000000E+00  0.00000000E+00  0.00000000E+00
  0.00000000E+00  0.00000000E+00  0.00000000E+00
