SYSTEM=MgO-rocksalt
ISMEAR=0
SIGMA=0.05
EDIFF=1E-6
ALGO=ALL
ISTART=2
IBRION=-1
NSW=0
ISYM=0

METAGGA  = M06L

ENCUT=520
PREC=Accurate  #default (Normal) usually safe, structures/energies change little with Accurate
LASPH=.TRUE.
LREAL=Auto
ISPIN=1
NELM=2000
NELMIN=8
NCORE=16
LWAVE=.FALSE.
LCHARG=.FALSE.
