au4                                     
   1.00000000000000     
    20.0000000000000000    0.0000000000000000    0.0000000000000000
     0.0000000000000000   20.0000000000000000    0.0000000000000000
     0.0000000000000000    0.0000000000000000   20.0000000000000000
   Cu
     1
Direct
  0.4500000000000028  0.4600000000000009  0.6000000000000014
 
  0.00000000E+00  0.00000000E+00  0.00000000E+00
