au4                                     
   1.00000000000000     
    20.0000000000000000    0.0000000000000000    0.0000000000000000
     0.0000000000000000   20.0000000000000000    0.0000000000000000
     0.0000000000000000    0.0000000000000000   20.0000000000000000
   Au
     4
Direct
  0.9715131675162638  0.1066546277187115  0.9990234884096623
  0.9595629445626059  0.8608180406614352  0.9533910800856162
  0.9928335490465798  0.9753402546075520  0.9917178522943857
  0.0760903388745433  0.0571870770122942  0.0558675792103358
 
  0.00000000E+00  0.00000000E+00  0.00000000E+00
  0.00000000E+00  0.00000000E+00  0.00000000E+00
  0.00000000E+00  0.00000000E+00  0.00000000E+00
  0.00000000E+00  0.00000000E+00  0.00000000E+00
