Cu                                      
   1.0000000000000000     
    20.0000000000000000    0.0000000000000000    0.0000000000000000
     0.0000000000000000   20.0000000000000000    0.0000000000000000
     0.0000000000000000    0.0000000000000000   20.0000000000000000
   Cu
     6
Direct
  0.4058648850853004  0.4997928204383868  0.5128184800503348
  0.4715436030814217  0.5879636645781048  0.4617838678012518
  0.5880436707254759  0.5545080221161953  0.4648135233497825
  0.5942406128552804  0.4457405993645338  0.5180048389258118
  0.4816442252583002  0.4117330215914450  0.5473962174235609
  0.5028389887242142  0.4764578303863374  0.4533208118842538

  0.00000000E+00  0.00000000E+00  0.00000000E+00
  0.00000000E+00  0.00000000E+00  0.00000000E+00
  0.00000000E+00  0.00000000E+00  0.00000000E+00
  0.00000000E+00  0.00000000E+00  0.00000000E+00
  0.00000000E+00  0.00000000E+00  0.00000000E+00
  0.00000000E+00  0.00000000E+00  0.00000000E+00
