Mg  O                                   
   1.00000000000000     
    21.1388521970183838    0.0000000000000000    0.0000000000000000
     0.0000000000000000   21.1388521970183838    0.0000000000000000
     0.0000000000000000    0.0000000000000000   30.0000000000000000
   Au   Mg   O 
    20   200   200
Selective dynamics
Direct
  0.4308025093558570  0.2267216047391472  0.5826801993645319   T   T   T
  0.5591148535006027  0.2368270404163013  0.5896357084265915   T   T   T
  0.6833835138594466  0.2515826905961163  0.5931214789197483   T   T   T
  0.8093512846233182  0.2595955318196417  0.5963219436193299   T   T   T
  0.4755670018494627  0.3483403824526476  0.5872102620651347   T   T   T
  0.6100585600425248  0.3628308245317484  0.5897976424853653   T   T   T
  0.7484795702080689  0.3726730978944346  0.5927258659820041   T   T   T
  0.5236224305789463  0.4665145828102837  0.5853254589281889   T   T   T
  0.6783421349823726  0.4775304463091246  0.5866746040828517   T   T   T
  0.5949654767610255  0.5756560150141894  0.5798120676199119   T   T   T
  0.4795312046736768  0.2688342280422873  0.6622026308203814   T   T   T
  0.6126637098515104  0.2773659676967242  0.6693870740900181   T   T   T
  0.7450745542409436  0.2971475855733701  0.6720324511543154   T   T   T
  0.5252239851124472  0.3989068079854832  0.6641205804385351   T   T   T
  0.6786770970307714  0.4127036083598909  0.6669823493671956   T   T   T
  0.5945920742854298  0.5149355761151071  0.6582712933440504   T   T   T
  0.5330014658259188  0.3180917476569292  0.7360095806200917   T   T   T
  0.6731111198517610  0.3332238869791482  0.7408143304824719   T   T   T
  0.5949504934170591  0.4463210337897934  0.7341049399486579   T   T   T
  0.5948045949671723  0.3681885127838882  0.8062202739768409   T   T   T
  0.0000191524070061  0.9999650815541585  0.4297155844141471   T   T   T
  0.0999200895271741  0.0999440820651998  0.4297507432674195   T   T   T
  0.0000989356922929  0.0997625333374401  0.4997100811045030   T   T   T
  0.0998975331661001  0.9998433768810102  0.4996412997950372   T   T   T
  0.9999999868810434  0.1999399975543312  0.4297692998051375   T   T   T
  0.0999028103805060  0.2999717234957018  0.4297686548698891   T   T   T
  0.0002409495302871  0.2998957448476602  0.4998168870770883   T   T   T
  0.0998356281991946  0.1998543439477345  0.4997384051042459   T   T   T
  0.9999813465476635  0.3999683718804192  0.4297997482206668   T   T   T
  0.0999239637229579  0.5000374977086466  0.4297479211219155   T   T   T
  0.0001287176471720  0.5001101021358920  0.4997583327875219   T   T   T
  0.0998773939660609  0.4000861388951051  0.4997038812357033   T   T   T
  0.0000312696797593  0.6000418067567779  0.4297514051554998   T   T   T
  0.0999494275853792  0.7000481515463406  0.4297141346124675   T   T   T
  0.0001292581366101  0.7001668282047788  0.4996666625455646   T   T   T
  0.0999140675844714  0.6001490245501202  0.4996704995678343   T   T   T
  0.0000409664727457  0.8000402833508176  0.4297041432308220   T   T   T
  0.0999646006945412  0.8999913306764284  0.4296933318585090   T   T   T
  0.0000983853182035  0.8999782283236542  0.4996291630631973   T   T   T
  0.0999419190117976  0.8000545978117444  0.4996210664649965   T   T   T
  0.1998995905058649  0.9999648190910477  0.4297194406515956   T   T   T
  0.2998745787431929  0.0999352348796592  0.4299763889575843   T   T   T
  0.1996169585033272  0.0996786702019321  0.4997700145274919   T   T   T
  0.2995581266467369  0.9996976717354755  0.4997549345291219   T   T   T
  0.1997895051769447  0.1999545878300211  0.4298160670425304   T   T   T
  0.2997886932018687  0.3000109046561406  0.4298842099924016   T   T   T
  0.1995476781228618  0.3001394215592583  0.4997571557364751   T   T   T
  0.2983742716488393  0.1999141426262838  0.5003121323622750   T   T   T
  0.1998256161299707  0.4000295103304694  0.4297213320430799   T   T   T
  0.2997258331938255  0.5000637276609368  0.4297425341973451   T   T   T
  0.1996696627915853  0.5001677407979344  0.4996927967510203   T   T   T
  0.2992131577988175  0.4001450046109269  0.4997554804796493   T   T   T
  0.1998439302581474  0.6000723148378029  0.4297323093993981   T   T   T
  0.2997873432016718  0.7000857577685480  0.4297331146476822   T   T   T
  0.1997530894688992  0.7001490099154282  0.4996474903841701   T   T   T
  0.2994621198442431  0.6002357104381701  0.4997460934877722   T   T   T
  0.1998834420768176  0.8000261012288234  0.4296968198324649   T   T   T
  0.2998634058104841  0.8999845712779972  0.4297230984508289   T   T   T
  0.1997671317502991  0.8999302669681981  0.4996236399614844   T   T   T
  0.2996266252006379  0.8001545677308641  0.4996474478066872   T   T   T
  0.3998779337026548  0.9998762973321504  0.4297981718928128   T   T   T
  0.4999945766306340  0.0997788840225766  0.4298389748824576   T   T   T
  0.3998012405028888  0.0984053933249598  0.5003325927934199   T   T   T
  0.5000201246165119  0.9996757727647747  0.4997259303269033   T   T   T
  0.3999323242287289  0.2000231821827043  0.4292492795137832   T   T   T
  0.4999862226246563  0.2998468961799645  0.4292164491544668   T   T   T
  0.3993046345803037  0.3016491788102655  0.5002424708772040   T   T   T
  0.5012210119323584  0.1991101869352150  0.4999330881427468   T   T   T
  0.3997455543271897  0.4000694168571499  0.4295406885368180   T   T   T
  0.4997396490935913  0.4999955986567670  0.4293655527957441   T   T   T
  0.3987451253324465  0.4999633767036897  0.4999685438744237   T   T   T
  0.4996507138475437  0.3993514849041730  0.4995811429704702   T   T   T
  0.3995876395861089  0.6000936844440972  0.4297654717765766   T   T   T
  0.4998088219984353  0.7002946406500570  0.4298354398859132   T   T   T
  0.3993059864367723  0.7005549188882227  0.4997784671856280   T   T   T
  0.4977928922297323  0.6011699002555559  0.5000692594680913   T   T   T
  0.3998184237225146  0.8001038260817879  0.4297239108624353   T   T   T
  0.4999098560008903  0.9000737869269813  0.4297399788563112   T   T   T
  0.3996839872988645  0.8999846095669142  0.4996998152486398   T   T   T
  0.4995585180024520  0.8005267472583810  0.4997375681463296   T   T   T
  0.6000506438793991  0.9999770989786825  0.4297035536436127   T   T   T
  0.7001384340701620  0.0999276763654109  0.4298183205929291   T   T   T
  0.6001905965372316  0.0991937666484830  0.4998518084791357   T   T   T
  0.7002068874484806  0.9998471183607833  0.4997377547000568   T   T   T
  0.6002359059824016  0.1997245972390544  0.4293311208129111   T   T   T
  0.7002465890208214  0.2995821502931761  0.4294527531746226   T   T   T
  0.6003351977748110  0.2991334864349895  0.4998553771401433   T   T   T
  0.7003147776014984  0.1991045449880815  0.5004994271255967   T   T   T
  0.6002183280972133  0.3993647789842356  0.4291891971126489   T   T   T
  0.7002682278299304  0.4998947720355460  0.4295298513711003   T   T   T
  0.5999593494133038  0.4981499002520309  0.4997041091808470   T   T   T
  0.7003258097848644  0.3988006017104695  0.5005107200363312   T   T   T
  0.5999614505768491  0.6002860329024742  0.4292445775220557   T   T   T
  0.7001440912064254  0.7002811699985827  0.4298684348797650   T   T   T
  0.5999122098160683  0.7023122719090580  0.4999266937800755   T   T   T
  0.7018743389424529  0.6012863090648466  0.5002484404266667   T   T   T
  0.5999932941023971  0.8003722611667001  0.4297065624402165   T   T   T
  0.7000971058893839  0.9001191021280945  0.4297471900739538   T   T   T
  0.6000389402368498  0.9001917655403489  0.4996947252225539   T   T   T
  0.7003881353770183  0.8005361605205437  0.4997540128787819   T   T   T
  0.8001049296304288  0.9999856073466873  0.4297569501720346   T   T   T
  0.9000556109959135  0.0999298240160513  0.4298053520267970   T   T   T
  0.8002813559382318  0.0993901672556774  0.4999517033668255   T   T   T
  0.9002397888107296  0.9998511684726878  0.4996925327598163   T   T   T
  0.8001116418668133  0.1999634175093945  0.4297558144966516   T   T   T
  0.8999320185625024  0.2999094177670045  0.4298467878958903   T   T   T
  0.8001882985320918  0.2997882214211387  0.5008087555742478   T   T   T
  0.9005385188134838  0.1996679066632439  0.4998700398989939   T   T   T
  0.8000662121381339  0.3997794890337545  0.4297353056801043   T   T   T
  0.9001079836009112  0.4999595841246105  0.4298646974727092   T   T   T
  0.8010912291530872  0.5000828493933867  0.5002986619809775   T   T   T
  0.9005702429044149  0.3998819088843319  0.5000793654407971   T   T   T
  0.8003051172433899  0.6000609192521793  0.4298653413460656   T   T   T
  0.9001347767506758  0.7000776634792345  0.4297571727806329   T   T   T
  0.8005908779149351  0.7005692058120019  0.4998275509482752   T   T   T
  0.9004239215908854  0.6002444534300011  0.4998268775991903   T   T   T
  0.8001338355569061  0.8001225622856367  0.4297380882903994   T   T   T
  0.9000832185775707  0.9000261753435908  0.4297204305527771   T   T   T
  0.8002693108374146  0.9001043477062751  0.4996826262143017   T   T   T
  0.9002693951082819  0.8001953810300932  0.4996622486175752   T   T   T
  0.0000000000000000  0.0000000000000000  0.2886110000000031   F   F   F
  0.1000000000000014  0.1000000000000014  0.2886110000000031   F   F   F
  0.0000000000000000  0.1000000000000014  0.3590739999999997   F   F   F
  0.1000000000000014  0.0000000000000000  0.3590739999999997   F   F   F
  0.0000000000000000  0.2000000000000028  0.2886110000000031   F   F   F
  0.1000000000000014  0.2999999999999972  0.2886110000000031   F   F   F
  0.0000000000000000  0.2999999999999972  0.3590739999999997   F   F   F
  0.1000000000000014  0.2000000000000028  0.3590739999999997   F   F   F
  0.0000000000000000  0.3999999999999986  0.2886110000000031   F   F   F
  0.1000000000000014  0.5000000000000000  0.2886110000000031   F   F   F
  0.0000000000000000  0.5000000000000000  0.3590739999999997   F   F   F
  0.1000000000000014  0.3999999999999986  0.3590739999999997   F   F   F
  0.0000000000000000  0.6000000000000014  0.2886110000000031   F   F   F
  0.1000000000000014  0.7000000000000028  0.2886110000000031   F   F   F
  0.0000000000000000  0.7000000000000028  0.3590739999999997   F   F   F
  0.1000000000000014  0.6000000000000014  0.3590739999999997   F   F   F
  0.0000000000000000  0.7999999999999972  0.2886110000000031   F   F   F
  0.1000000000000014  0.8999999999999986  0.2886110000000031   F   F   F
  0.0000000000000000  0.8999999999999986  0.3590739999999997   F   F   F
  0.1000000000000014  0.7999999999999972  0.3590739999999997   F   F   F
  0.2000000000000028  0.0000000000000000  0.2886110000000031   F   F   F
  0.2999999999999972  0.1000000000000014  0.2886110000000031   F   F   F
  0.2000000000000028  0.1000000000000014  0.3590739999999997   F   F   F
  0.2999999999999972  0.0000000000000000  0.3590739999999997   F   F   F
  0.2000000000000028  0.2000000000000028  0.2886110000000031   F   F   F
  0.2999999999999972  0.2999999999999972  0.2886110000000031   F   F   F
  0.2000000000000028  0.2999999999999972  0.3590739999999997   F   F   F
  0.2999999999999972  0.2000000000000028  0.3590739999999997   F   F   F
  0.2000000000000028  0.3999999999999986  0.2886110000000031   F   F   F
  0.2999999999999972  0.5000000000000000  0.2886110000000031   F   F   F
  0.2000000000000028  0.5000000000000000  0.3590739999999997   F   F   F
  0.2999999999999972  0.3999999999999986  0.3590739999999997   F   F   F
  0.2000000000000028  0.6000000000000014  0.2886110000000031   F   F   F
  0.2999999999999972  0.7000000000000028  0.2886110000000031   F   F   F
  0.2000000000000028  0.7000000000000028  0.3590739999999997   F   F   F
  0.2999999999999972  0.6000000000000014  0.3590739999999997   F   F   F
  0.2000000000000028  0.7999999999999972  0.2886110000000031   F   F   F
  0.2999999999999972  0.8999999999999986  0.2886110000000031   F   F   F
  0.2000000000000028  0.8999999999999986  0.3590739999999997   F   F   F
  0.2999999999999972  0.7999999999999972  0.3590739999999997   F   F   F
  0.3999999999999986  0.0000000000000000  0.2886110000000031   F   F   F
  0.5000000000000000  0.1000000000000014  0.2886110000000031   F   F   F
  0.3999999999999986  0.1000000000000014  0.3590739999999997   F   F   F
  0.5000000000000000  0.0000000000000000  0.3590739999999997   F   F   F
  0.3999999999999986  0.2000000000000028  0.2886110000000031   F   F   F
  0.5000000000000000  0.2999999999999972  0.2886110000000031   F   F   F
  0.3999999999999986  0.2999999999999972  0.3590739999999997   F   F   F
  0.5000000000000000  0.2000000000000028  0.3590739999999997   F   F   F
  0.3999999999999986  0.3999999999999986  0.2886110000000031   F   F   F
  0.5000000000000000  0.5000000000000000  0.2886110000000031   F   F   F
  0.3999999999999986  0.5000000000000000  0.3590739999999997   F   F   F
  0.5000000000000000  0.3999999999999986  0.3590739999999997   F   F   F
  0.3999999999999986  0.6000000000000014  0.2886110000000031   F   F   F
  0.5000000000000000  0.7000000000000028  0.2886110000000031   F   F   F
  0.3999999999999986  0.7000000000000028  0.3590739999999997   F   F   F
  0.5000000000000000  0.6000000000000014  0.3590739999999997   F   F   F
  0.3999999999999986  0.7999999999999972  0.2886110000000031   F   F   F
  0.5000000000000000  0.8999999999999986  0.2886110000000031   F   F   F
  0.3999999999999986  0.8999999999999986  0.3590739999999997   F   F   F
  0.5000000000000000  0.7999999999999972  0.3590739999999997   F   F   F
  0.6000000000000014  0.0000000000000000  0.2886110000000031   F   F   F
  0.7000000000000028  0.1000000000000014  0.2886110000000031   F   F   F
  0.6000000000000014  0.1000000000000014  0.3590739999999997   F   F   F
  0.7000000000000028  0.0000000000000000  0.3590739999999997   F   F   F
  0.6000000000000014  0.2000000000000028  0.2886110000000031   F   F   F
  0.7000000000000028  0.2999999999999972  0.2886110000000031   F   F   F
  0.6000000000000014  0.2999999999999972  0.3590739999999997   F   F   F
  0.7000000000000028  0.2000000000000028  0.3590739999999997   F   F   F
  0.6000000000000014  0.3999999999999986  0.2886110000000031   F   F   F
  0.7000000000000028  0.5000000000000000  0.2886110000000031   F   F   F
  0.6000000000000014  0.5000000000000000  0.3590739999999997   F   F   F
  0.7000000000000028  0.3999999999999986  0.3590739999999997   F   F   F
  0.6000000000000014  0.6000000000000014  0.2886110000000031   F   F   F
  0.7000000000000028  0.7000000000000028  0.2886110000000031   F   F   F
  0.6000000000000014  0.7000000000000028  0.3590739999999997   F   F   F
  0.7000000000000028  0.6000000000000014  0.3590739999999997   F   F   F
  0.6000000000000014  0.7999999999999972  0.2886110000000031   F   F   F
  0.7000000000000028  0.8999999999999986  0.2886110000000031   F   F   F
  0.6000000000000014  0.8999999999999986  0.3590739999999997   F   F   F
  0.7000000000000028  0.7999999999999972  0.3590739999999997   F   F   F
  0.7999999999999972  0.0000000000000000  0.2886110000000031   F   F   F
  0.8999999999999986  0.1000000000000014  0.2886110000000031   F   F   F
  0.7999999999999972  0.1000000000000014  0.3590739999999997   F   F   F
  0.8999999999999986  0.0000000000000000  0.3590739999999997   F   F   F
  0.7999999999999972  0.2000000000000028  0.2886110000000031   F   F   F
  0.8999999999999986  0.2999999999999972  0.2886110000000031   F   F   F
  0.7999999999999972  0.2999999999999972  0.3590739999999997   F   F   F
  0.8999999999999986  0.2000000000000028  0.3590739999999997   F   F   F
  0.7999999999999972  0.3999999999999986  0.2886110000000031   F   F   F
  0.8999999999999986  0.5000000000000000  0.2886110000000031   F   F   F
  0.7999999999999972  0.5000000000000000  0.3590739999999997   F   F   F
  0.8999999999999986  0.3999999999999986  0.3590739999999997   F   F   F
  0.7999999999999972  0.6000000000000014  0.2886110000000031   F   F   F
  0.8999999999999986  0.7000000000000028  0.2886110000000031   F   F   F
  0.7999999999999972  0.7000000000000028  0.3590739999999997   F   F   F
  0.8999999999999986  0.6000000000000014  0.3590739999999997   F   F   F
  0.7999999999999972  0.7999999999999972  0.2886110000000031   F   F   F
  0.8999999999999986  0.8999999999999986  0.2886110000000031   F   F   F
  0.7999999999999972  0.8999999999999986  0.3590739999999997   F   F   F
  0.8999999999999986  0.7999999999999972  0.3590739999999997   F   F   F
  0.0001475835874132  0.9998215822961640  0.5008109587197893   T   T   T
  0.0999970945752580  0.0998205055020520  0.5008595539318605   T   T   T
  0.0000626824391716  0.0999330574054795  0.4295125497162573   T   T   T
  0.1000443833876616  0.9999817546843630  0.4294769629962758   T   T   T
  0.0002023663709920  0.1998240094456492  0.5009069129865082   T   T   T
  0.0999700770455192  0.2999673170116495  0.5008716927597803   T   T   T
  0.9999899162213737  0.2999730107191922  0.4295667185009222   T   T   T
  0.1000104389377512  0.1999495888082734  0.4295258311060692   T   T   T
  0.0001466499745746  0.4000450730730662  0.5009015396105028   T   T   T
  0.0999412616269666  0.5001318441540050  0.5008389079594906   T   T   T
  0.9999847981406944  0.5000361611596915  0.4295336934835206   T   T   T
  0.0999721608418938  0.3999916199710754  0.4295059213194676   T   T   T
  0.0000752418469361  0.6001703724769669  0.5008439468675405   T   T   T
  0.0999553621920981  0.7001263132452067  0.5008160299062254   T   T   T
  0.9999958609455177  0.7000373786580454  0.4294966389008792   T   T   T
  0.0999521842207329  0.6000563358940241  0.4294926525306977   T   T   T
  0.0000853485101402  0.8000547710557200  0.5008147864905155   T   T   T
  0.1000025990148288  0.8999472670288213  0.5008036351404144   T   T   T
  0.0000440359143354  0.8999635847341665  0.4294641762886826   T   T   T
  0.0999888717434985  0.8000163686953172  0.4294670473057138   T   T   T
  0.1998676349337174  0.9998833602071997  0.5008324894685074   T   T   T
  0.2998232003577925  0.0998919316461624  0.5011369236052445   T   T   T
  0.2000631601616618  0.1000597850725597  0.4295721056843362   T   T   T
  0.3000019479105447  0.0000552102725564  0.4295533279074419   T   T   T
  0.1996458091561237  0.1998819519453505  0.5009847688630700   T   T   T
  0.2996099926444700  0.2998957861783396  0.5008582252386091   T   T   T
  0.1999749432338405  0.2998612847859548  0.4295376667556354   T   T   T
  0.3004772774617663  0.1999105822845522  0.4300519086787986   T   T   T
  0.1997553517207322  0.4000685529527033  0.5007953978989192   T   T   T
  0.2995448812041701  0.5001774876952680  0.5008091709327331   T   T   T
  0.1999067639821348  0.5000639288261652  0.4294941186437242   T   T   T
  0.2998144219430827  0.4000250583084650  0.4294345356432814   T   T   T
  0.1998206096850410  0.6001793824065444  0.5008225134506077   T   T   T
  0.2997648621578008  0.7001900111834587  0.5008286742181980   T   T   T
  0.1999385457247413  0.7000483986260093  0.4294798089133636   T   T   T
  0.2998960081217064  0.6000873988682329  0.4295146699425345   T   T   T
  0.1998579515288270  0.8000505975810768  0.5007949734587740   T   T   T
  0.2997597981665336  0.8999509061656639  0.5008237877661159   T   T   T
  0.1999856115825267  0.9000102477152936  0.4294714255902150   T   T   T
  0.2999417465210428  0.7999995149389960  0.4294836431338140   T   T   T
  0.3997096867217067  0.9996214248330233  0.5009581300329629   T   T   T
  0.4996370093253546  0.0994340127068440  0.5006263379270095   T   T   T
  0.3997713549822848  0.1005005958690504  0.4300389468322052   T   T   T
  0.4997520642170912  0.9998968026187995  0.4294934089105098   T   T   T
  0.3991521881117421  0.1994731422109908  0.5046689355091658   T   T   T
  0.4996716296375965  0.2996828289285318  0.4980555215457940   T   T   T
  0.3995696888873468  0.2994099378442812  0.4297203834030938   T   T   T
  0.4991504723832350  0.1995661051956574  0.4296325549041669   T   T   T
  0.3991051301888575  0.4005363239351425  0.4998967763044107   T   T   T
  0.4995020371400614  0.5009371243176730  0.5005779302466706   T   T   T
  0.3999920510121413  0.5003036195315289  0.4295549308788082   T   T   T
  0.4997955641511993  0.4004894445028100  0.4291787055505907   T   T   T
  0.3994535153391965  0.6002079491874284  0.5008783079817931   T   T   T
  0.4997875993732848  0.7003736089105033  0.5009941142302026   T   T   T
  0.4000052250622730  0.6999834743124254  0.4295558835144249   T   T   T
  0.5003711565075619  0.6000910488561431  0.4299678467687258   T   T   T
  0.3997454605419151  0.8001390252268976  0.5008205056603074   T   T   T
  0.4998159663807513  0.8999717601083432  0.5008285115627800   T   T   T
  0.3998925271302696  0.8999744293851890  0.4295051735269624   T   T   T
  0.4999992000843747  0.7999794018646966  0.4295367555079252   T   T   T
  0.5999490613130831  0.9997048856369801  0.5007676748223560   T   T   T
  0.7001692818484315  0.0994064626375177  0.5007220979968352   T   T   T
  0.5998884422443069  0.0997017151609327  0.4293924225091672   T   T   T
  0.7000618734965514  0.9998582384710559  0.4294930975522675   T   T   T
  0.5999111120751337  0.1987762652260159  0.4993699381330714   T   T   T
  0.7002074372019464  0.2993508645719345  0.4987188690250619   T   T   T
  0.5999776489963580  0.2995815653349112  0.4289389755978519   T   T   T
  0.7003010751351653  0.1995140909443407  0.4294576617485362   T   T   T
  0.6001938502341631  0.3997464794607453  0.4984195256219195   T   T   T
  0.7001994661810897  0.5011832277564423  0.5008693470615100   T   T   T
  0.5999922314664943  0.5008442427301745  0.4299469583825442   T   T   T
  0.7002425849053608  0.4004312938589720  0.4294885274359785   T   T   T
  0.5997831988693321  0.6020137657753892  0.5029408033286913   T   T   T
  0.6999995726476200  0.7003740903513247  0.5010410315979215   T   T   T
  0.5999541377891191  0.6997361403309412  0.4298588151011842   T   T   T
  0.6994976138737812  0.6000877104310476  0.4300616174652632   T   T   T
  0.5999303557971487  0.8004662178937565  0.5008623493345326   T   T   T
  0.7001102969315909  0.8999723492236669  0.5008431852372368   T   T   T
  0.5999436583857616  0.8999882079972963  0.4294902317538458   T   T   T
  0.6999165258561391  0.7999665097762616  0.4295516780069519   T   T   T
  0.8002397889963078  0.9997271480131005  0.5008612471288529   T   T   T
  0.9003103994853063  0.0996849065444039  0.5009456308265854   T   T   T
  0.8002015477384390  0.0998841361626006  0.4296058845563664   T   T   T
  0.9000871736386031  0.9999111746485312  0.4294989305235717   T   T   T
  0.8008011389942595  0.1992780939697028  0.5010972672605831   T   T   T
  0.9004632287733472  0.2998415048507326  0.5010891136240190   T   T   T
  0.8003397162981543  0.2999155507210602  0.4296302101422711   T   T   T
  0.9001232770606720  0.1999125979270104  0.4296005345968794   T   T   T
  0.8005842775088823  0.4003700266124426  0.5006336497425394   T   T   T
  0.9002753544172890  0.5001564193645223  0.5009859201865794   T   T   T
  0.7998703004425565  0.5002065824078201  0.4297613567472069   T   T   T
  0.9000171936570780  0.4000369722913177  0.4296559630744028   T   T   T
  0.8003648664995282  0.6002858958293018  0.5010144311184064   T   T   T
  0.9001571229014402  0.7001939303908600  0.5008646647208082   T   T   T
  0.7999133885010679  0.6999574142683187  0.4295986350691905   T   T   T
  0.8999958432180861  0.6000553761724134  0.4295667743833107   T   T   T
  0.8001568120279003  0.8001231666686976  0.5008439063587034   T   T   T
  0.9001709209735296  0.8999303476798062  0.5008220311849456   T   T   T
  0.8000444831696853  0.8999272816405224  0.4294981282514172   T   T   T
  0.9000103687153498  0.7999816951514305  0.4294974964582252   T   T   T
  0.0000000000000000  0.0000000000000000  0.3590739999999997   F   F   F
  0.1000000000000014  0.1000000000000014  0.3590739999999997   F   F   F
  0.0000000000000000  0.1000000000000014  0.2886110000000031   F   F   F
  0.1000000000000014  0.0000000000000000  0.2886110000000031   F   F   F
  0.0000000000000000  0.2000000000000028  0.3590739999999997   F   F   F
  0.1000000000000014  0.2999999999999972  0.3590739999999997   F   F   F
  0.0000000000000000  0.2999999999999972  0.2886110000000031   F   F   F
  0.1000000000000014  0.2000000000000028  0.2886110000000031   F   F   F
  0.0000000000000000  0.3999999999999986  0.3590739999999997   F   F   F
  0.1000000000000014  0.5000000000000000  0.3590739999999997   F   F   F
  0.0000000000000000  0.5000000000000000  0.2886110000000031   F   F   F
  0.1000000000000014  0.3999999999999986  0.2886110000000031   F   F   F
  0.0000000000000000  0.6000000000000014  0.3590739999999997   F   F   F
  0.1000000000000014  0.7000000000000028  0.3590739999999997   F   F   F
  0.0000000000000000  0.7000000000000028  0.2886110000000031   F   F   F
  0.1000000000000014  0.6000000000000014  0.2886110000000031   F   F   F
  0.0000000000000000  0.7999999999999972  0.3590739999999997   F   F   F
  0.1000000000000014  0.8999999999999986  0.3590739999999997   F   F   F
  0.0000000000000000  0.8999999999999986  0.2886110000000031   F   F   F
  0.1000000000000014  0.7999999999999972  0.2886110000000031   F   F   F
  0.2000000000000028  0.0000000000000000  0.3590739999999997   F   F   F
  0.2999999999999972  0.1000000000000014  0.3590739999999997   F   F   F
  0.2000000000000028  0.1000000000000014  0.2886110000000031   F   F   F
  0.2999999999999972  0.0000000000000000  0.2886110000000031   F   F   F
  0.2000000000000028  0.2000000000000028  0.3590739999999997   F   F   F
  0.2999999999999972  0.2999999999999972  0.3590739999999997   F   F   F
  0.2000000000000028  0.2999999999999972  0.2886110000000031   F   F   F
  0.2999999999999972  0.2000000000000028  0.2886110000000031   F   F   F
  0.2000000000000028  0.3999999999999986  0.3590739999999997   F   F   F
  0.2999999999999972  0.5000000000000000  0.3590739999999997   F   F   F
  0.2000000000000028  0.5000000000000000  0.2886110000000031   F   F   F
  0.2999999999999972  0.3999999999999986  0.2886110000000031   F   F   F
  0.2000000000000028  0.6000000000000014  0.3590739999999997   F   F   F
  0.2999999999999972  0.7000000000000028  0.3590739999999997   F   F   F
  0.2000000000000028  0.7000000000000028  0.2886110000000031   F   F   F
  0.2999999999999972  0.6000000000000014  0.2886110000000031   F   F   F
  0.2000000000000028  0.7999999999999972  0.3590739999999997   F   F   F
  0.2999999999999972  0.8999999999999986  0.3590739999999997   F   F   F
  0.2000000000000028  0.8999999999999986  0.2886110000000031   F   F   F
  0.2999999999999972  0.7999999999999972  0.2886110000000031   F   F   F
  0.3999999999999986  0.0000000000000000  0.3590739999999997   F   F   F
  0.5000000000000000  0.1000000000000014  0.3590739999999997   F   F   F
  0.3999999999999986  0.1000000000000014  0.2886110000000031   F   F   F
  0.5000000000000000  0.0000000000000000  0.2886110000000031   F   F   F
  0.3999999999999986  0.2000000000000028  0.3590739999999997   F   F   F
  0.5000000000000000  0.2999999999999972  0.3590739999999997   F   F   F
  0.3999999999999986  0.2999999999999972  0.2886110000000031   F   F   F
  0.5000000000000000  0.2000000000000028  0.2886110000000031   F   F   F
  0.3999999999999986  0.3999999999999986  0.3590739999999997   F   F   F
  0.5000000000000000  0.5000000000000000  0.3590739999999997   F   F   F
  0.3999999999999986  0.5000000000000000  0.2886110000000031   F   F   F
  0.5000000000000000  0.3999999999999986  0.2886110000000031   F   F   F
  0.3999999999999986  0.6000000000000014  0.3590739999999997   F   F   F
  0.5000000000000000  0.7000000000000028  0.3590739999999997   F   F   F
  0.3999999999999986  0.7000000000000028  0.2886110000000031   F   F   F
  0.5000000000000000  0.6000000000000014  0.2886110000000031   F   F   F
  0.3999999999999986  0.7999999999999972  0.3590739999999997   F   F   F
  0.5000000000000000  0.8999999999999986  0.3590739999999997   F   F   F
  0.3999999999999986  0.8999999999999986  0.2886110000000031   F   F   F
  0.5000000000000000  0.7999999999999972  0.2886110000000031   F   F   F
  0.6000000000000014  0.0000000000000000  0.3590739999999997   F   F   F
  0.7000000000000028  0.1000000000000014  0.3590739999999997   F   F   F
  0.6000000000000014  0.1000000000000014  0.2886110000000031   F   F   F
  0.7000000000000028  0.0000000000000000  0.2886110000000031   F   F   F
  0.6000000000000014  0.2000000000000028  0.3590739999999997   F   F   F
  0.7000000000000028  0.2999999999999972  0.3590739999999997   F   F   F
  0.6000000000000014  0.2999999999999972  0.2886110000000031   F   F   F
  0.7000000000000028  0.2000000000000028  0.2886110000000031   F   F   F
  0.6000000000000014  0.3999999999999986  0.3590739999999997   F   F   F
  0.7000000000000028  0.5000000000000000  0.3590739999999997   F   F   F
  0.6000000000000014  0.5000000000000000  0.2886110000000031   F   F   F
  0.7000000000000028  0.3999999999999986  0.2886110000000031   F   F   F
  0.6000000000000014  0.6000000000000014  0.3590739999999997   F   F   F
  0.7000000000000028  0.7000000000000028  0.3590739999999997   F   F   F
  0.6000000000000014  0.7000000000000028  0.2886110000000031   F   F   F
  0.7000000000000028  0.6000000000000014  0.2886110000000031   F   F   F
  0.6000000000000014  0.7999999999999972  0.3590739999999997   F   F   F
  0.7000000000000028  0.8999999999999986  0.3590739999999997   F   F   F
  0.6000000000000014  0.8999999999999986  0.2886110000000031   F   F   F
  0.7000000000000028  0.7999999999999972  0.2886110000000031   F   F   F
  0.7999999999999972  0.0000000000000000  0.3590739999999997   F   F   F
  0.8999999999999986  0.1000000000000014  0.3590739999999997   F   F   F
  0.7999999999999972  0.1000000000000014  0.2886110000000031   F   F   F
  0.8999999999999986  0.0000000000000000  0.2886110000000031   F   F   F
  0.7999999999999972  0.2000000000000028  0.3590739999999997   F   F   F
  0.8999999999999986  0.2999999999999972  0.3590739999999997   F   F   F