Ag 
 1.0000000000000000
    21.1388521970183838    0.0000000000000000    0.0000000000000000
     0.0000000000000000   21.1388521970183838    0.0000000000000000
     0.0000000000000000    0.0000000000000000   22.1138852197018352
  Ag
   2
Direct
  0.6615283684933829  0.5000000001879528  0.6183128310411021
  0.5384715603483655  0.5000000001879528  0.6183128310411021
