Mg  O                                   
   1.00000000000000     
    21.1388521970183838    0.0000000000000000    0.0000000000000000
     0.0000000000000000   21.1388521970183838    0.0000000000000000
     0.0000000000000000    0.0000000000000000   30.0000000000000000
   Au   Mg   O 
    20   200   200
Selective dynamics
Direct
  0.5226709647389870  0.4471437492593156  0.6037140096395631   T   T   T
  0.3903824392820819  0.4617678330523364  0.6112410351780077   T   T   T
  0.2620763240464977  0.4764477207293000  0.6097962749381736   T   T   T
  0.1421545602852594  0.4872446275252663  0.5776399040189807   T   T   T
  0.5938872003790987  0.5508450959144294  0.5979409002875127   T   T   T
  0.4671920833569128  0.5631094008338011  0.6096810120731475   T   T   T
  0.3411246800767127  0.5794063673309150  0.6139646583228299   T   T   T
  0.2231060086266510  0.5887155303800099  0.5773759450225915   T   T   T
  0.5638689134282723  0.3287641502855770  0.6057830508126620   T   T   T
  0.4393435339985018  0.3456281215729835  0.6059535911341897   T   T   T
  0.3142020288356427  0.3573995806225054  0.6061886971273086   T   T   T
  0.1885088537311566  0.3724184016069044  0.5946305708415069   T   T   T
  0.6615715041035360  0.6545047592373813  0.5793568623838110   T   T   T
  0.5400091289192845  0.6691760400722925  0.5979781918257829   T   T   T
  0.4188685543923447  0.6842425858497293  0.6109215783147577   T   T   T
  0.3062487212635083  0.6863472550114911  0.5726951697981686   T   T   T
  0.5892908766914814  0.2176104723149326  0.5698016454991821   T   T   T
  0.4807738708666331  0.2247080201490987  0.6107821569588295   T   T   T
  0.3595447986681928  0.2388565226134363  0.5975942795976626   T   T   T
  0.2341318005608245  0.2562859623643352  0.5891614409095542   T   T   T
  0.0000002564613877  0.0000161728111225  0.4287155795380072   T   T   T
  0.1000151563914074  0.1000109901348195  0.4287452632693591   T   T   T
  0.0000101432327884  0.0999878204916451  0.4976003227927193   T   T   T
  0.0999708692638089  0.0000420009295050  0.4975955678074253   T   T   T
  0.0000225798615687  0.1999875833367506  0.4287344009284455   T   T   T
  0.1001532168570317  0.2999727436052317  0.4288090708167165   T   T   T
  0.9999239545811196  0.2999287694059894  0.4976617262958686   T   T   T
  0.0998726924060839  0.1999544394659447  0.4977576661970101   T   T   T
  0.0000244541213834  0.3999494716622612  0.4287733144890491   T   T   T
  0.0999370590946406  0.4998846081565968  0.4285391230104730   T   T   T
  0.9974025739153356  0.4998479326401343  0.4978069840283240   T   T   T
  0.0997671540527944  0.3989091659725923  0.4986345373108297   T   T   T
  0.9997965572724805  0.6000165470423016  0.4286560583772256   T   T   T
  0.0997987607146540  0.7001059213783322  0.4286124799130546   T   T   T
  0.9996765746128004  0.7002561835130133  0.4975940134689151   T   T   T
  0.0973441183120118  0.6006615009492421  0.4979398792238920   T   T   T
  0.9999479099256050  0.8000557199903331  0.4286931350260336   T   T   T
  0.0999708042895869  0.9000761550356671  0.4286943838880977   T   T   T
  0.9999491660739587  0.9000638615739118  0.4975843461131605   T   T   T
  0.0995521739334254  0.8005024280594397  0.4975751705684138   T   T   T
  0.1999975854509403  0.0000542290625439  0.4287215088860040   T   T   T
  0.2999953943837702  0.1001566815471382  0.4288041365120830   T   T   T
  0.2000145616681383  0.0998424796578765  0.4976940847657700   T   T   T
  0.2999885208842625  0.0000948030064456  0.4976188686868064   T   T   T
  0.2001539849833169  0.2001244275734141  0.4287458172221420   T   T   T
  0.3000760841842628  0.3000021677105412  0.4288487440812537   T   T   T
  0.2002134962378299  0.3000856079826563  0.4994027154350647   T   T   T
  0.3001789132709214  0.2000806945507716  0.4992560759412351   T   T   T
  0.2001522779337881  0.3996592946658681  0.4286878252251931   T   T   T
  0.3004945108214961  0.4995647941127382  0.4285847114197910   T   T   T
  0.2028451867926347  0.4990863644558886  0.4975671961143323   T   T   T
  0.3005596396373769  0.3996111847053423  0.4990683997664905   T   T   T
  0.1999814631512489  0.6001207292470524  0.4284623740311084   T   T   T
  0.3001431262317262  0.7001473459594991  0.4283975414939143   T   T   T
  0.1972059499513431  0.7026697389782790  0.4976051592034147   T   T   T
  0.3030726543500313  0.5972489693236928  0.4977408856455960   T   T   T
  0.1999684589807524  0.8002280483804325  0.4286046927632921   T   T   T
  0.3000156521838718  0.9002080536267489  0.4285816424286011   T   T   T
  0.1997952986251621  0.9002721824844495  0.4975791894486789   T   T   T
  0.3000960548873375  0.8029536644008605  0.4975067303889588   T   T   T
  0.3999932991100126  0.0000456714783355  0.4287151332935793   T   T   T
  0.4999562553525771  0.1000977565169200  0.4287945970817569   T   T   T
  0.3998134349661838  0.0998413303552411  0.4977368699755353   T   T   T
  0.4998577141868941  0.9998842604169514  0.4976287053214368   T   T   T
  0.3997860817090752  0.2001662651651857  0.4287634393751031   T   T   T
  0.4997945820577982  0.3001019017864158  0.4288749139334923   T   T   T
  0.3998685470452336  0.3002416776413119  0.4993451314776137   T   T   T
  0.4965514206848025  0.1999525866491196  0.4992743729640193   T   T   T
  0.4001119496399940  0.3999371825965059  0.4289139646595040   T   T   T
  0.5000345467052485  0.4999647331897488  0.4288997527319759   T   T   T
  0.4006247498572618  0.4995855858592777  0.4991717791426483   T   T   T
  0.4998565497173802  0.4001245966631959  0.4995976920829857   T   T   T
  0.4004430425994406  0.5999515898505402  0.4287926131510679   T   T   T
  0.5001529266696042  0.6998389772466004  0.4287318140874076   T   T   T
  0.4031716402176349  0.7003093260037554  0.4993855331093785   T   T   T
  0.5002050566565135  0.5995842767388169  0.4992366162089754   T   T   T
  0.4000664577813473  0.7999237872838408  0.4287808529518480   T   T   T
  0.5000104648343183  0.8999722605236598  0.4287146356875168   T   T   T
  0.4001709138040890  0.9001390665006952  0.4976239615994005   T   T   T
  0.5001761571411403  0.8002130447062683  0.4977527957191589   T   T   T
  0.6000050898078098  0.9998213962612499  0.4285886025206053   T   T   T
  0.7000658408287874  0.0999425807930646  0.4287159841395025   T   T   T
  0.6001510902309168  0.0969580866903698  0.4975609480628132   T   T   T
  0.7002329190375322  0.9998299289714216  0.4975865408490759   T   T   T
  0.5999722100157644  0.1999793098477393  0.4283302839104600   T   T   T
  0.7000035522446443  0.3000472206344281  0.4287060375384573   T   T   T
  0.5999855737284159  0.3035304632052595  0.4977847217183989   T   T   T
  0.7031035470502087  0.1998505733255885  0.4975076960637083   T   T   T
  0.5997921369269353  0.4003726249129783  0.4287068396997019   T   T   T
  0.6997881864850307  0.4998706257103426  0.4286930763485418   T   T   T
  0.5996616232135101  0.4999048202186834  0.4993314213774704   T   T   T
  0.7001010879332084  0.4001403185211119  0.4976750678548304   T   T   T
  0.5998020623519315  0.5998585209092400  0.4286762803385376   T   T   T
  0.6998642585400852  0.6998565276767555  0.4285903733710776   T   T   T
  0.5992647790173878  0.6998898759628898  0.4990619643204316   T   T   T
  0.6999419049473198  0.5972755219127869  0.4976776543972126   T   T   T
  0.5999928962672388  0.7998812982332357  0.4287979329762000   T   T   T
  0.7000081303630479  0.9000008856741609  0.4287315888761976   T   T   T
  0.6000073848007680  0.8999331331027088  0.4976125045022252   T   T   T
  0.6999885019059033  0.8004883344398253  0.4978931881928157   T   T   T
  0.8000279760541170  0.9999827246272140  0.4287057258151571   T   T   T
  0.9000331348398375  0.0999907119260360  0.4287135236927264   T   T   T
  0.8001904040446799  0.0997689253682902  0.4975846002299144   T   T   T
  0.9000253987292453  0.9999866579784629  0.4975858378057109   T   T   T
  0.8001889400924594  0.1999962179268863  0.4285733275754753   T   T   T
  0.9000187688270080  0.2999876414007494  0.4287134210885782   T   T   T
  0.8001379743810384  0.3001579020855860  0.4975967067905963   T   T   T
  0.9000875237719180  0.1999809364623640  0.4975862375195296   T   T   T
  0.7999545477676413  0.4000015023319878  0.4287125365503807   T   T   T
  0.8998146682090039  0.4999789363551009  0.4286296592824453   T   T   T
  0.8000036708697394  0.4998954823127251  0.4976349574258637   T   T   T
  0.8998666024169735  0.3998403379237875  0.4976054687544272   T   T   T
  0.7999405091604453  0.5999658474464958  0.4287219734335596   T   T   T
  0.8999634399445192  0.7000223482011283  0.4287131487595295   T   T   T
  0.8003456207653268  0.6999197071016388  0.4977973144141887   T   T   T
  0.8997870573688533  0.6001060728208546  0.4975989021022395   T   T   T
  0.7999968030423035  0.8000051868251904  0.4287539200684894   T   T   T
  0.8999967330237116  0.9000135194835739  0.4287127812476917   T   T   T
  0.8000397366825642  0.9000031644816276  0.4975934388095913   T   T   T
  0.8999677249487031  0.8000562912469497  0.4975976617299532   T   T   T
  0.0000000000000000  0.0000000000000000  0.2886110000000031   F   F   F
  0.1000000000000014  0.1000000000000014  0.2886110000000031   F   F   F
  0.0000000000000000  0.1000000000000014  0.3590739999999997   F   F   F
  0.1000000000000014  0.0000000000000000  0.3590739999999997   F   F   F
  0.0000000000000000  0.2000000000000028  0.2886110000000031   F   F   F
  0.1000000000000014  0.2999999999999972  0.2886110000000031   F   F   F
  0.0000000000000000  0.2999999999999972  0.3590739999999997   F   F   F
  0.1000000000000014  0.2000000000000028  0.3590739999999997   F   F   F
  0.0000000000000000  0.3999999999999986  0.2886110000000031   F   F   F
  0.1000000000000014  0.5000000000000000  0.2886110000000031   F   F   F
  0.0000000000000000  0.5000000000000000  0.3590739999999997   F   F   F
  0.1000000000000014  0.3999999999999986  0.3590739999999997   F   F   F
  0.0000000000000000  0.6000000000000014  0.2886110000000031   F   F   F
  0.1000000000000014  0.7000000000000028  0.2886110000000031   F   F   F
  0.0000000000000000  0.7000000000000028  0.3590739999999997   F   F   F
  0.1000000000000014  0.6000000000000014  0.3590739999999997   F   F   F
  0.0000000000000000  0.7999999999999972  0.2886110000000031   F   F   F
  0.1000000000000014  0.8999999999999986  0.2886110000000031   F   F   F
  0.0000000000000000  0.8999999999999986  0.3590739999999997   F   F   F
  0.1000000000000014  0.7999999999999972  0.3590739999999997   F   F   F
  0.2000000000000028  0.0000000000000000  0.2886110000000031   F   F   F
  0.2999999999999972  0.1000000000000014  0.2886110000000031   F   F   F
  0.2000000000000028  0.1000000000000014  0.3590739999999997   F   F   F
  0.2999999999999972  0.0000000000000000  0.3590739999999997   F   F   F
  0.2000000000000028  0.2000000000000028  0.2886110000000031   F   F   F
  0.2999999999999972  0.2999999999999972  0.2886110000000031   F   F   F
  0.2000000000000028  0.2999999999999972  0.3590739999999997   F   F   F
  0.2999999999999972  0.2000000000000028  0.3590739999999997   F   F   F
  0.2000000000000028  0.3999999999999986  0.2886110000000031   F   F   F
  0.2999999999999972  0.5000000000000000  0.2886110000000031   F   F   F
  0.2000000000000028  0.5000000000000000  0.3590739999999997   F   F   F
  0.2999999999999972  0.3999999999999986  0.3590739999999997   F   F   F
  0.2000000000000028  0.6000000000000014  0.2886110000000031   F   F   F
  0.2999999999999972  0.7000000000000028  0.2886110000000031   F   F   F
  0.2000000000000028  0.7000000000000028  0.3590739999999997   F   F   F
  0.2999999999999972  0.6000000000000014  0.3590739999999997   F   F   F
  0.2000000000000028  0.7999999999999972  0.2886110000000031   F   F   F
  0.2999999999999972  0.8999999999999986  0.2886110000000031   F   F   F
  0.2000000000000028  0.8999999999999986  0.3590739999999997   F   F   F
  0.2999999999999972  0.7999999999999972  0.3590739999999997   F   F   F
  0.3999999999999986  0.0000000000000000  0.2886110000000031   F   F   F
  0.5000000000000000  0.1000000000000014  0.2886110000000031   F   F   F
  0.3999999999999986  0.1000000000000014  0.3590739999999997   F   F   F
  0.5000000000000000  0.0000000000000000  0.3590739999999997   F   F   F
  0.3999999999999986  0.2000000000000028  0.2886110000000031   F   F   F
  0.5000000000000000  0.2999999999999972  0.2886110000000031   F   F   F
  0.3999999999999986  0.2999999999999972  0.3590739999999997   F   F   F
  0.5000000000000000  0.2000000000000028  0.3590739999999997   F   F   F
  0.3999999999999986  0.3999999999999986  0.2886110000000031   F   F   F
  0.5000000000000000  0.5000000000000000  0.2886110000000031   F   F   F
  0.3999999999999986  0.5000000000000000  0.3590739999999997   F   F   F
  0.5000000000000000  0.3999999999999986  0.3590739999999997   F   F   F
  0.3999999999999986  0.6000000000000014  0.2886110000000031   F   F   F
  0.5000000000000000  0.7000000000000028  0.2886110000000031   F   F   F
  0.3999999999999986  0.7000000000000028  0.3590739999999997   F   F   F
  0.5000000000000000  0.6000000000000014  0.3590739999999997   F   F   F
  0.3999999999999986  0.7999999999999972  0.2886110000000031   F   F   F
  0.5000000000000000  0.8999999999999986  0.2886110000000031   F   F   F
  0.3999999999999986  0.8999999999999986  0.3590739999999997   F   F   F
  0.5000000000000000  0.7999999999999972  0.3590739999999997   F   F   F
  0.6000000000000014  0.0000000000000000  0.2886110000000031   F   F   F
  0.7000000000000028  0.1000000000000014  0.2886110000000031   F   F   F
  0.6000000000000014  0.1000000000000014  0.3590739999999997   F   F   F
  0.7000000000000028  0.0000000000000000  0.3590739999999997   F   F   F
  0.6000000000000014  0.2000000000000028  0.2886110000000031   F   F   F
  0.7000000000000028  0.2999999999999972  0.2886110000000031   F   F   F
  0.6000000000000014  0.2999999999999972  0.3590739999999997   F   F   F
  0.7000000000000028  0.2000000000000028  0.3590739999999997   F   F   F
  0.6000000000000014  0.3999999999999986  0.2886110000000031   F   F   F
  0.7000000000000028  0.5000000000000000  0.2886110000000031   F   F   F
  0.6000000000000014  0.5000000000000000  0.3590739999999997   F   F   F
  0.7000000000000028  0.3999999999999986  0.3590739999999997   F   F   F
  0.6000000000000014  0.6000000000000014  0.2886110000000031   F   F   F
  0.7000000000000028  0.7000000000000028  0.2886110000000031   F   F   F
  0.6000000000000014  0.7000000000000028  0.3590739999999997   F   F   F
  0.7000000000000028  0.6000000000000014  0.3590739999999997   F   F   F
  0.6000000000000014  0.7999999999999972  0.2886110000000031   F   F   F
  0.7000000000000028  0.8999999999999986  0.2886110000000031   F   F   F
  0.6000000000000014  0.8999999999999986  0.3590739999999997   F   F   F
  0.7000000000000028  0.7999999999999972  0.3590739999999997   F   F   F
  0.7999999999999972  0.0000000000000000  0.2886110000000031   F   F   F
  0.8999999999999986  0.1000000000000014  0.2886110000000031   F   F   F
  0.7999999999999972  0.1000000000000014  0.3590739999999997   F   F   F
  0.8999999999999986  0.0000000000000000  0.3590739999999997   F   F   F
  0.7999999999999972  0.2000000000000028  0.2886110000000031   F   F   F
  0.8999999999999986  0.2999999999999972  0.2886110000000031   F   F   F
  0.7999999999999972  0.2999999999999972  0.3590739999999997   F   F   F
  0.8999999999999986  0.2000000000000028  0.3590739999999997   F   F   F
  0.7999999999999972  0.3999999999999986  0.2886110000000031   F   F   F
  0.8999999999999986  0.5000000000000000  0.2886110000000031   F   F   F
  0.7999999999999972  0.5000000000000000  0.3590739999999997   F   F   F
  0.8999999999999986  0.3999999999999986  0.3590739999999997   F   F   F
  0.7999999999999972  0.6000000000000014  0.2886110000000031   F   F   F
  0.8999999999999986  0.7000000000000028  0.2886110000000031   F   F   F
  0.7999999999999972  0.7000000000000028  0.3590739999999997   F   F   F
  0.8999999999999986  0.6000000000000014  0.3590739999999997   F   F   F
  0.7999999999999972  0.7999999999999972  0.2886110000000031   F   F   F
  0.8999999999999986  0.8999999999999986  0.2886110000000031   F   F   F
  0.7999999999999972  0.8999999999999986  0.3590739999999997   F   F   F
  0.8999999999999986  0.7999999999999972  0.3590739999999997   F   F   F
  0.9999410948588305  0.9998914482963251  0.4989081709647160   T   T   T
  0.0998545549507354  0.0998693182736930  0.4989323113889952   T   T   T
  0.9999765975727872  0.0999824313666171  0.4284684951037982   T   T   T
  0.0999740492184332  0.9998892682105375  0.4284611056322652   T   T   T
  0.9999090942083523  0.1999947843804215  0.4989040423562884   T   T   T
  0.0995342452960991  0.3000760836201813  0.4991477125718838   T   T   T
  0.0000911694346296  0.3001579239961379  0.4285238038306667   T   T   T
  0.1000279455160031  0.2000273775067514  0.4286329531955285   T   T   T
  0.9997525949099518  0.4003301688187034  0.4991000857902127   T   T   T
  0.0980740494750320  0.5009052602704008  0.5012217704280040   T   T   T
  0.0003026022460657  0.5002312271887414  0.4287856860120990   T   T   T
  0.0997931974792390  0.4007631127607975  0.4289216771753213   T   T   T
  0.9994058227815728  0.6000823531489540  0.4990485766046103   T   T   T
  0.0993150735323970  0.7001826356448412  0.4989972880976652   T   T   T
  0.0001560334583148  0.6998252612607559  0.4284923796334141   T   T   T
  0.1000722443631561  0.5996842949400444  0.4290152219223994   T   T   T
  0.9999854781334623  0.7999253911876977  0.4988851987138825   T   T   T
  0.0998320196304869  0.8999171529038010  0.4988843131684789   T   T   T
  0.0000275986316928  0.8998638120623748  0.4284600713077823   T   T   T
  0.1000665546684306  0.7997866667427159  0.4285005726097176   T   T   T
  0.1998305315265992  0.9997713982417958  0.4988969995779744   T   T   T
  0.2998392490129370  0.0995768953131577  0.4990174188309524   T   T   T
  0.1998656702350297  0.1000044099398249  0.4285687015933389   T   T   T
  0.2999474041549884  0.9999094348312660  0.4284587252495809   T   T   T
  0.1995963014861149  0.1993351952613650  0.4996999727261476   T   T   T
  0.3002858946575545  0.3003101821725091  0.4978091149046266   T   T   T
  0.1995803164182155  0.2997998527703032  0.4287289577102143   T   T   T
  0.2996980495693781  0.1997463274887502  0.4287145879135449   T   T   T
  0.1998255929975338  0.4003756263901472  0.4974247963194378   T   T   T
  0.3003203761331499  0.5000625715836814  0.4979008789739530   T   T   T
  0.1993984459898567  0.5009382775586200  0.4290041310515048   T   T   T
  0.2997740590534380  0.4003002049432594  0.4284754276567306   T   T   T
  0.1982740375930125  0.6015820386058742  0.4995392088240194   T   T   T
  0.2979321206396198  0.7029312128879120  0.4986996563338517   T   T   T
  0.1998417100081295  0.6998772915499381  0.4288174096457160   T   T   T
  0.2992945919579795  0.6006314414871596  0.4290925287098925   T   T   T
  0.1995425777774687  0.8005934608050014  0.4989348556366048   T   T   T
  0.2998650786470859  0.9003926492414199  0.4988522647653537   T   T   T
  0.1999785658759166  0.8998615594912159  0.4284641789368612   T   T   T
  0.2997228482572476  0.7999711695739014  0.4285780576575606   T   T   T
  0.4001002886243964  0.9998780454496556  0.4988503358455910   T   T   T
  0.5005006528032188  0.0999062829730423  0.4990517135930229   T   T   T
  0.4001348234848964  0.0998595133856304  0.4285083663153486   T   T   T
  0.5001578575581538  0.0000133121940770  0.4285041889648511   T   T   T
  0.3994665537740830  0.1992471885877100  0.4984324665598946   T   T   T
  0.5004067320931398  0.2993842965848925  0.4980190334938686   T   T   T
  0.4000951878627650  0.2997864071152422  0.4285759116355048   T   T   T
  0.5007288570806290  0.1996409044753624  0.4291521332684031   T   T   T
  0.4000016785410070  0.4000804023579423  0.4987576538601705   T   T   T
  0.4996005930040740  0.5000733036272575  0.4984874257853860   T   T   T
  0.3997632026209538  0.5002815614820968  0.4285812536395811   T   T   T
  0.5001536622579609  0.3999117308056532  0.4286690578629281   T   T   T
  0.3999944726544219  0.6006497208466243  0.4983453275738679   T   T   T
  0.5004536670249006  0.7006327055321409  0.4984855855205190   T   T   T
  0.3994100215469226  0.7002078023918308  0.4290335879118888   T   T   T
  0.4997271856449503  0.6003714034967871  0.4284801921007110   T   T   T
  0.3997302075572567  0.8002650229609892  0.4989447484598014   T   T   T
  0.5000352989483305  0.9000211924756766  0.4988350850719109   T   T   T
  0.3998840058503351  0.8999233438323390  0.4284895496450816   T   T   T
  0.4999292147698988  0.8000232267816986  0.4285083597797876   T   T   T
  0.6001380136756590  0.9994635996130117  0.4988736547899370   T   T   T
  0.7005080903037817  0.0995015780421502  0.4989821881135563   T   T   T
  0.6001884185434759  0.1000877603435537  0.4286998534419642   T   T   T
  0.6999812527797085  0.9999967215458784  0.4284720321750048   T   T   T
  0.6036495437745186  0.1968341336039875  0.4995276847206854   T   T   T
  0.7001797153976995  0.2996510965156080  0.4988265875815184   T   T   T
  0.6003373790085562  0.2993151548811895  0.4288818536392250   T   T   T
  0.6999792473924213  0.1998364023597678  0.4286414417329348   T   T   T
  0.6005665531130620  0.4004675639460334  0.4984790078251118   T   T   T
  0.7005924153396397  0.4993668396306020  0.4987399883592102   T   T   T
  0.6002414497579920  0.4998332069552964  0.4284615885515718   T   T   T
  0.7001942496583703  0.3997673107949248  0.4284458451931612   T   T   T
  0.5997303115867711  0.5994366293964866  0.4967651640404225   T   T   T
  0.7009234015297979  0.7001331907585520  0.5011816597457370   T   T   T
  0.6005795074048227  0.7003087930843857  0.4288089536727246   T   T   T
  0.7004605646325381  0.6002698879677515  0.4286100019358473   T   T   T
  0.6002984612112964  0.8002377819858423  0.4989468234806795   T   T   T
  0.7001659546311265  0.9000544224826234  0.4989044021062924   T   T   T
  0.6001095138412733  0.8999567679190997  0.4284493228558298   T   T   T
  0.7001557136043787  0.7995856098887215  0.4287738434877991   T   T   T
  0.8001709249898692  0.9998347144220648  0.4988875099029971   T   T   T
  0.8999834617562115  0.0999430272593874  0.4989128400182473   T   T   T
  0.8000084010440164  0.1000499793161140  0.4284784764807747   T   T   T
  0.8999990897303417  0.9999502056993698  0.4284611967234551   T   T   T
  0.8005493359445736  0.1999380594652892  0.4988824149674322   T   T   T
  0.9000631383396155  0.3000208074536575  0.4988840730874229   T   T   T
  0.8000690406976866  0.2998666984761604  0.4284852417634543   T   T   T
  0.9000318207777631  0.2000225349288686  0.4284505225174327   T   T   T
  0.8002404565260932  0.3998363989516272  0.4988677215422982   T   T   T
  0.8996843768642725  0.5000644619590119  0.4989248778054747   T   T   T
  0.8001614850417094  0.5000106592134300  0.4284556288581167   T   T   T
  0.9001558227368508  0.4001358636608367  0.4284883544978976   T   T   T
  0.8002531516187198  0.5999077984619628  0.4988799784465408   T   T   T
  0.9000993462978544  0.7000100544733884  0.4989184529733647   T   T   T
  0.7997612367669200  0.6999999169606564  0.4287175685222944   T   T   T
  0.9001364310418550  0.6000208245100064  0.4284748354567081   T   T   T
  0.8000564600001906  0.7999180124879006  0.4989791971386829   T   T   T
  0.9000474266645102  0.8998579900385825  0.4989051265776686   T   T   T
  0.7999929959307233  0.8999134685321138  0.4284622763500721   T   T   T
  0.9000462053681153  0.7998521089313079  0.4284726672384030   T   T   T
  0.0000000000000000  0.0000000000000000  0.3590739999999997   F   F   F
  0.1000000000000014  0.1000000000000014  0.3590739999999997   F   F   F
  0.0000000000000000  0.1000000000000014  0.2886110000000031   F   F   F
  0.1000000000000014  0.0000000000000000  0.2886110000000031   F   F   F
  0.0000000000000000  0.2000000000000028  0.3590739999999997   F   F   F
  0.1000000000000014  0.2999999999999972  0.3590739999999997   F   F   F
  0.0000000000000000  0.2999999999999972  0.2886110000000031   F   F   F
  0.1000000000000014  0.2000000000000028  0.2886110000000031   F   F   F
  0.0000000000000000  0.3999999999999986  0.3590739999999997   F   F   F
  0.1000000000000014  0.5000000000000000  0.3590739999999997   F   F   F
  0.0000000000000000  0.5000000000000000  0.2886110000000031   F   F   F
  0.1000000000000014  0.3999999999999986  0.2886110000000031   F   F   F
  0.0000000000000000  0.6000000000000014  0.3590739999999997   F   F   F
  0.1000000000000014  0.7000000000000028  0.3590739999999997   F   F   F
  0.0000000000000000  0.7000000000000028  0.2886110000000031   F   F   F
  0.1000000000000014  0.6000000000000014  0.2886110000000031   F   F   F
  0.0000000000000000  0.7999999999999972  0.3590739999999997   F   F   F
  0.1000000000000014  0.8999999999999986  0.3590739999999997   F   F   F
  0.0000000000000000  0.8999999999999986  0.2886110000000031   F   F   F
  0.1000000000000014  0.7999999999999972  0.2886110000000031   F   F   F
  0.2000000000000028  0.0000000000000000  0.3590739999999997   F   F   F
  0.2999999999999972  0.1000000000000014  0.3590739999999997   F   F   F
  0.2000000000000028  0.1000000000000014  0.2886110000000031   F   F   F
  0.2999999999999972  0.0000000000000000  0.2886110000000031   F   F   F
  0.2000000000000028  0.2000000000000028  0.3590739999999997   F   F   F
  0.2999999999999972  0.2999999999999972  0.3590739999999997   F   F   F
  0.2000000000000028  0.2999999999999972  0.2886110000000031   F   F   F
  0.2999999999999972  0.2000000000000028  0.2886110000000031   F   F   F
  0.2000000000000028  0.3999999999999986  0.3590739999999997   F   F   F
  0.2999999999999972  0.5000000000000000  0.3590739999999997   F   F   F
  0.2000000000000028  0.5000000000000000  0.2886110000000031   F   F   F
  0.2999999999999972  0.3999999999999986  0.2886110000000031   F   F   F
  0.2000000000000028  0.6000000000000014  0.3590739999999997   F   F   F
  0.2999999999999972  0.7000000000000028  0.3590739999999997   F   F   F
  0.2000000000000028  0.7000000000000028  0.2886110000000031   F   F   F
  0.2999999999999972  0.6000000000000014  0.2886110000000031   F   F   F
  0.2000000000000028  0.7999999999999972  0.3590739999999997   F   F   F
  0.2999999999999972  0.8999999999999986  0.3590739999999997   F   F   F
  0.2000000000000028  0.8999999999999986  0.2886110000000031   F   F   F
  0.2999999999999972  0.7999999999999972  0.2886110000000031   F   F   F
  0.3999999999999986  0.0000000000000000  0.3590739999999997   F   F   F
  0.5000000000000000  0.1000000000000014  0.3590739999999997   F   F   F
  0.3999999999999986  0.1000000000000014  0.2886110000000031   F   F   F
  0.5000000000000000  0.0000000000000000  0.2886110000000031   F   F   F
  0.3999999999999986  0.2000000000000028  0.3590739999999997   F   F   F
  0.5000000000000000  0.2999999999999972  0.3590739999999997   F   F   F
  0.3999999999999986  0.2999999999999972  0.2886110000000031   F   F   F
  0.5000000000000000  0.2000000000000028  0.2886110000000031   F   F   F
  0.3999999999999986  0.3999999999999986  0.3590739999999997   F   F   F
  0.5000000000000000  0.5000000000000000  0.3590739999999997   F   F   F
  0.3999999999999986  0.5000000000000000  0.2886110000000031   F   F   F
  0.5000000000000000  0.3999999999999986  0.2886110000000031   F   F   F
  0.3999999999999986  0.6000000000000014  0.3590739999999997   F   F   F
  0.5000000000000000  0.7000000000000028  0.3590739999999997   F   F   F
  0.3999999999999986  0.7000000000000028  0.2886110000000031   F   F   F
  0.5000000000000000  0.6000000000000014  0.2886110000000031   F   F   F
  0.3999999999999986  0.7999999999999972  0.3590739999999997   F   F   F
  0.5000000000000000  0.8999999999999986  0.3590739999999997   F   F   F
  0.3999999999999986  0.8999999999999986  0.2886110000000031   F   F   F
  0.5000000000000000  0.7999999999999972  0.2886110000000031   F   F   F
  0.6000000000000014  0.0000000000000000  0.3590739999999997   F   F   F
  0.7000000000000028  0.1000000000000014  0.3590739999999997   F   F   F
  0.6000000000000014  0.1000000000000014  0.2886110000000031   F   F   F
  0.7000000000000028  0.0000000000000000  0.2886110000000031   F   F   F
  0.6000000000000014  0.2000000000000028  0.3590739999999997   F   F   F
  0.7000000000000028  0.2999999999999972  0.3590739999999997   F   F   F
  0.6000000000000014  0.2999999999999972  0.2886110000000031   F   F   F
  0.7000000000000028  0.2000000000000028  0.2886110000000031   F   F   F
  0.6000000000000014  0.3999999999999986  0.3590739999999997   F   F   F
  0.7000000000000028  0.5000000000000000  0.3590739999999997   F   F   F
  0.6000000000000014  0.5000000000000000  0.2886110000000031   F   F   F
  0.7000000000000028  0.3999999999999986  0.2886110000000031   F   F   F
  0.6000000000000014  0.6000000000000014  0.3590739999999997   F   F   F
  0.7000000000000028  0.7000000000000028  0.3590739999999997   F   F   F
  0.6000000000000014  0.7000000000000028  0.2886110000000031   F   F   F
  0.7000000000000028  0.6000000000000014  0.2886110000000031   F   F   F
  0.6000000000000014  0.7999999999999972  0.3590739999999997   F   F   F
  0.7000000000000028  0.8999999999999986  0.3590739999999997   F   F   F
  0.6000000000000014  0.8999999999999986  0.2886110000000031   F   F   F
  0.7000000000000028  0.7999999999999972  0.2886110000000031   F   F   F
  0.7999999999999972  0.0000000000000000  0.3590739999999997   F   F   F
  0.8999999999999986  0.1000000000000014  0.3590739999999997   F   F   F
  0.7999999999999972  0.1000000000000014  0.2886110000000031   F   F   F
  0.8999999999999986  0.0000000000000000  0.2886110000000031   F   F   F
  0.7999999999999972  0.2000000000000028  0.3590739999999997   F   F   F
  0.8999999999999986  0.2999999999999972  0.3590739999999997   F   F   F