Ag                                      
   1.0000000000000000     
    20.0000000000000000    0.0000000000000000    0.0000000000000000
     0.0000000000000000   20.0000000000000000    0.0000000000000000
     0.0000000000000000    0.0000000000000000   20.0000000000000000
   Ag
     6
Direct
  0.4591565050464126  0.3444408836200519  0.5434375208705322
  0.5317131375732069  0.5263695652015622  0.4456274346359441
  0.4681084920027948  0.4736489082049749  0.5546793672111184
  0.5226755582503344  0.3956901565093591  0.4356044481537185
  0.5409249361512137  0.6556129494023091  0.4563868412030875
  0.4773530562060331  0.6043188849717399  0.5642740974105985

  0.00000000E+00  0.00000000E+00  0.00000000E+00
  0.00000000E+00  0.00000000E+00  0.00000000E+00
  0.00000000E+00  0.00000000E+00  0.00000000E+00
  0.00000000E+00  0.00000000E+00  0.00000000E+00
  0.00000000E+00  0.00000000E+00  0.00000000E+00
  0.00000000E+00  0.00000000E+00  0.00000000E+00
