Au 
 1.0000000000000000
    21.1388521970183838    0.0000000000000000    0.0000000000000000
     0.0000000000000000   21.1388521970183838    0.0000000000000000
     0.0000000000000000    0.0000000000000000   22.1138852197018352
  Au
   2
Direct
  0.5600019577653126  0.5000000001879528  0.6291846416477773
  0.4399980422346876  0.5000000001879528  0.6291846416477773
