Ag 
 1.0000000000000000
    21.1388521970183838    0.0000000000000000    0.0000000000000000
     0.0000000000000000   21.1388521970183838    0.0000000000000000
     0.0000000000000000    0.0000000000000000   22.1138852197018352
  Ag
   2
Direct
  0.4929814440227550  0.4070185620954428  0.6375321465461581
  0.4070185320706566  0.4929814740475412  0.6375321465461581
