Mg  O                                   
   1.0000000000000000     
    21.1388521970183838    0.0000000000000000    0.0000000000000000
     0.0000000000000000   21.1388521970183838    0.0000000000000000
     0.0000000000000000    0.0000000000000000   30.0000000000000000
   Au   Mg   O 
    20   200   200
Selective dynamics
Direct
  0.4241810129946988  0.2304806199125247  0.5901800705809070   T   T   T
  0.5512506037649472  0.2329822545701418  0.5975695122586040   T   T   T
  0.6756543739913080  0.2383981127756355  0.5989484417892409   T   T   T
  0.8013712981322200  0.2432826645665799  0.5940379850203569   T   T   T
  0.4743968495549931  0.3496915391425709  0.5941141825347740   T   T   T
  0.6095557551519244  0.3557424984498181  0.5965443165999035   T   T   T
  0.7457736420592430  0.3601985379083946  0.5946147913370969   T   T   T
  0.5292841082495178  0.4643025525305967  0.5912711488463563   T   T   T
  0.6806764048935102  0.4695946226199781  0.5902027188302258   T   T   T
  0.6009705642676086  0.5722764139462844  0.5839617564353596   T   T   T
  0.4760136885290427  0.2719984923822893  0.6709665873704006   T   T   T
  0.6113131824077560  0.2677805680884869  0.6771576313810483   T   T   T
  0.7467236839032594  0.2841861363645212  0.6732155926698954   T   T   T
  0.5274026004473303  0.3992118622340378  0.6717883500527648   T   T   T
  0.6865188060978821  0.4058599661429114  0.6714630616034157   T   T   T
  0.6035391485575655  0.5115402711243783  0.6635132026361319   T   T   T
  0.5366254656098087  0.3177187798641616  0.7438163940495647   T   T   T
  0.6807310554351748  0.3244994318895348  0.7443880839372705   T   T   T
  0.6053873486018904  0.4425250650392014  0.7396417289100402   T   T   T
  0.6067456226710265  0.3636638215613228  0.8118549092643922   T   T   T
  0.0000618432196621  0.9999355647686854  0.4305365075655171   T   T   T
  0.1000105215654603  0.0999491490739006  0.4305533712596413   T   T   T
  0.0002668022465943  0.0997099648066076  0.5010731491586912   T   T   T
  0.1000109943699959  0.9998242983258256  0.5010280561629038   T   T   T
  0.0001306028834197  0.1999465537240021  0.4305512858343358   T   T   T
  0.1000148803419073  0.2999889282609858  0.4305384741253500   T   T   T
  0.0003994398030084  0.3000217638195493  0.5010822830553427   T   T   T
  0.1000033761613453  0.1998854561864819  0.5010927939124555   T   T   T
  0.0000934146795244  0.4000060023426822  0.4305359981682019   T   T   T
  0.1000044372655786  0.5000463608509569  0.4305403088168573   T   T   T
  0.0002260916994374  0.5001300493531131  0.5010648323772069   T   T   T
  0.1000132993820694  0.4001254565898155  0.5010374756360615   T   T   T
  0.0000996890199770  0.6000340675406537  0.4305526247672127   T   T   T
  0.1000059605514778  0.7000308900308546  0.4305416456478394   T   T   T
  0.0001501682943261  0.7001183961849416  0.5010429424047678   T   T   T
  0.1000069049730058  0.6001215010215062  0.5010541518898441   T   T   T
  0.0000682866997758  0.8000163623620598  0.4305380124837594   T   T   T
  0.1000120542358637  0.8999656877670007  0.4305313401799507   T   T   T
  0.0001377821761172  0.8999270143905287  0.5010349447529511   T   T   T
  0.0999981469914065  0.8000273039172550  0.5010409755662409   T   T   T
  0.1999701169186198  0.9999415951044683  0.4305486562403789   T   T   T
  0.2999457982865398  0.0999605948634998  0.4308139047178588   T   T   T
  0.1997419979423171  0.0996933429354831  0.5011241723316573   T   T   T
  0.2996543888104039  0.9997054685316371  0.5011179946508977   T   T   T
  0.1999205605312405  0.1999859026488388  0.4306292284472609   T   T   T
  0.2999334578825993  0.3000286318787023  0.4307556823696740   T   T   T
  0.1996844293650320  0.3001549846963822  0.5011045832031368   T   T   T
  0.2986430178345470  0.1999550876148319  0.5017009619425369   T   T   T
  0.1999279715436285  0.4000298540358019  0.4305191404685247   T   T   T
  0.2998506619401991  0.5000277426231954  0.4305642679264142   T   T   T
  0.1998007937860118  0.5001672915436227  0.5010514492077132   T   T   T
  0.2993425902078259  0.4001536846582309  0.5011027499728062   T   T   T
  0.1999169873670848  0.6000446781358144  0.4305574676641976   T   T   T
  0.2998639360244084  0.7000413661262985  0.4305532051092804   T   T   T
  0.1998691045123106  0.7001061606500354  0.5010500452352643   T   T   T
  0.2995796231031551  0.6001846502985050  0.5010970071267913   T   T   T
  0.1999464814969001  0.8000088711624866  0.4305373076742607   T   T   T
  0.2999307214800968  0.8999784130795000  0.4305558446238867   T   T   T
  0.1998714696270051  0.8999104593431950  0.5010374131878506   T   T   T
  0.2997502468611342  0.8001034339091108  0.5010436637493417   T   T   T
  0.3999231276532905  0.9999502399337354  0.4306492176612937   T   T   T
  0.4999710613968124  0.0999890606857570  0.4307945246139996   T   T   T
  0.3997763023211930  0.0987123338972117  0.5018069315560632   T   T   T
  0.5000185216070928  0.9997682991487237  0.5011118745449969   T   T   T
  0.3999726111365227  0.2001086538416706  0.4300523117451564   T   T   T
  0.4999968062177621  0.2998645845014050  0.4303712885198825   T   T   T
  0.3994947110032628  0.3013096669377230  0.5020833611696852   T   T   T
  0.5006810714762502  0.1994177177230022  0.5022311819387446   T   T   T
  0.3999511607621280  0.3999680637143662  0.4305320284055727   T   T   T
  0.4998520183023021  0.4998060476762727  0.4304342422567865   T   T   T
  0.3989991794283599  0.4999591508498755  0.5013685984908420   T   T   T
  0.4997153294793623  0.3993344860451016  0.5019119007095576   T   T   T
  0.3997329961669144  0.6000334216497525  0.4306617411620735   T   T   T
  0.4998725683053052  0.7001973070612051  0.4307628617613459   T   T   T
  0.3994302601016432  0.7004565042075654  0.5011268185779177   T   T   T
  0.4981063862815177  0.6008585840211227  0.5017805078716862   T   T   T
  0.3998849909651235  0.8000690084204015  0.4305475797514064   T   T   T
  0.4999396228468259  0.9001001971549164  0.4305611206203174   T   T   T
  0.3997828569360120  0.8999833054528501  0.5010901979600477   T   T   T
  0.4996305602637189  0.8004678319926979  0.5011144291584250   T   T   T
  0.6000229132933892  0.0000659953654749  0.4305322043061679   T   T   T
  0.7000976223765648  0.1000281251367931  0.4307066475322555   T   T   T
  0.6001105270931777  0.0994413757030310  0.5012399583964807   T   T   T
  0.7001232824383375  0.9998608486915246  0.5010944862139975   T   T   T
  0.6000478637285437  0.1998343679070526  0.4303524432545247   T   T   T
  0.7000944273116705  0.2996531011760172  0.4303353817077609   T   T   T
  0.6001704562601877  0.2991699879081800  0.5017400542914290   T   T   T
  0.6999529542073210  0.1993802103810411  0.5021410907787403   T   T   T
  0.6000592941351280  0.3993315860308521  0.4302123705535361   T   T   T
  0.7002198177234292  0.4997519719244218  0.4304126379390664   T   T   T
  0.5999276019653301  0.4978923946218918  0.5015916210443819   T   T   T
  0.7002970225604038  0.3987200521241633  0.5019557663309866   T   T   T
  0.6000254114364109  0.6001096155250122  0.4298657675949196   T   T   T
  0.7001581832551205  0.7001997464863167  0.4307655872875523   T   T   T
  0.5999980807362347  0.7021121791137143  0.5015524689627305   T   T   T
  0.7019487295544630  0.6010122927444035  0.5018258780539385   T   T   T
  0.6000149684075722  0.8003070871287331  0.4305687036269605   T   T   T
  0.7000861264397534  0.9001281377631444  0.4305608848628970   T   T   T
  0.6000397299960536  0.9002018888272877  0.5010762275028986   T   T   T
  0.7004115494412549  0.8004914380029999  0.5011189302106138   T   T   T
  0.8001036923236300  0.9999686855302435  0.4305949937693798   T   T   T
  0.9001090579971731  0.0999146713202555  0.4306650555911121   T   T   T
  0.8003582543393268  0.0990656753108164  0.5014615825931755   T   T   T
  0.9003357544436869  0.9997704951237769  0.5010687595600012   T   T   T
  0.8001599013230101  0.2000158120984774  0.4303455289891879   T   T   T
  0.9000976906837224  0.2999483178535972  0.4306149823486604   T   T   T
  0.8004957079517518  0.3004405847636595  0.5019002652598342   T   T   T
  0.9011517122298297  0.1997656651176500  0.5012233844300344   T   T   T
  0.8000967709183096  0.3998258961798797  0.4304637773415559   T   T   T
  0.9001745787572094  0.4999737846859224  0.4306009220257830   T   T   T
  0.8011614302010331  0.4999667042982435  0.5015094846839754   T   T   T
  0.9007742221120504  0.3999654678212111  0.5011899453803843   T   T   T
  0.8002960926935819  0.6000191131557759  0.4306868558134630   T   T   T
  0.9001595279549685  0.7000526463198335  0.4305495884400648   T   T   T
  0.8006362106893989  0.7004928151202179  0.5011365628693319   T   T   T
  0.9004782342622251  0.6001978199147650  0.5011138051906883   T   T   T
  0.8001404911752631  0.8000956433967154  0.4305453889544795   T   T   T
  0.9000853877683522  0.9000001398590085  0.4305433801624562   T   T   T
  0.8002525482671166  0.9000546916262256  0.5010707507873100   T   T   T
  0.9002869972598120  0.8001428989679646  0.5010370001339107   T   T   T
  0.0000000000000000  0.0000000000000000  0.2886110000000031   F   F   F
  0.1000000000000014  0.1000000000000014  0.2886110000000031   F   F   F
  0.0000000000000000  0.1000000000000014  0.3590739999999997   F   F   F
  0.1000000000000014  0.0000000000000000  0.3590739999999997   F   F   F
  0.0000000000000000  0.2000000000000028  0.2886110000000031   F   F   F
  0.1000000000000014  0.2999999999999972  0.2886110000000031   F   F   F
  0.0000000000000000  0.2999999999999972  0.3590739999999997   F   F   F
  0.1000000000000014  0.2000000000000028  0.3590739999999997   F   F   F
  0.0000000000000000  0.3999999999999986  0.2886110000000031   F   F   F
  0.1000000000000014  0.5000000000000000  0.2886110000000031   F   F   F
  0.0000000000000000  0.5000000000000000  0.3590739999999997   F   F   F
  0.1000000000000014  0.3999999999999986  0.3590739999999997   F   F   F
  0.0000000000000000  0.6000000000000014  0.2886110000000031   F   F   F
  0.1000000000000014  0.7000000000000028  0.2886110000000031   F   F   F
  0.0000000000000000  0.7000000000000028  0.3590739999999997   F   F   F
  0.1000000000000014  0.6000000000000014  0.3590739999999997   F   F   F
  0.0000000000000000  0.7999999999999972  0.2886110000000031   F   F   F
  0.1000000000000014  0.8999999999999986  0.2886110000000031   F   F   F
  0.0000000000000000  0.8999999999999986  0.3590739999999997   F   F   F
  0.1000000000000014  0.7999999999999972  0.3590739999999997   F   F   F
  0.2000000000000028  0.0000000000000000  0.2886110000000031   F   F   F
  0.2999999999999972  0.1000000000000014  0.2886110000000031   F   F   F
  0.2000000000000028  0.1000000000000014  0.3590739999999997   F   F   F
  0.2999999999999972  0.0000000000000000  0.3590739999999997   F   F   F
  0.2000000000000028  0.2000000000000028  0.2886110000000031   F   F   F
  0.2999999999999972  0.2999999999999972  0.2886110000000031   F   F   F
  0.2000000000000028  0.2999999999999972  0.3590739999999997   F   F   F
  0.2999999999999972  0.2000000000000028  0.3590739999999997   F   F   F
  0.2000000000000028  0.3999999999999986  0.2886110000000031   F   F   F
  0.2999999999999972  0.5000000000000000  0.2886110000000031   F   F   F
  0.2000000000000028  0.5000000000000000  0.3590739999999997   F   F   F
  0.2999999999999972  0.3999999999999986  0.3590739999999997   F   F   F
  0.2000000000000028  0.6000000000000014  0.2886110000000031   F   F   F
  0.2999999999999972  0.7000000000000028  0.2886110000000031   F   F   F
  0.2000000000000028  0.7000000000000028  0.3590739999999997   F   F   F
  0.2999999999999972  0.6000000000000014  0.3590739999999997   F   F   F
  0.2000000000000028  0.7999999999999972  0.2886110000000031   F   F   F
  0.2999999999999972  0.8999999999999986  0.2886110000000031   F   F   F
  0.2000000000000028  0.8999999999999986  0.3590739999999997   F   F   F
  0.2999999999999972  0.7999999999999972  0.3590739999999997   F   F   F
  0.3999999999999986  0.0000000000000000  0.2886110000000031   F   F   F
  0.5000000000000000  0.1000000000000014  0.2886110000000031   F   F   F
  0.3999999999999986  0.1000000000000014  0.3590739999999997   F   F   F
  0.5000000000000000  0.0000000000000000  0.3590739999999997   F   F   F
  0.3999999999999986  0.2000000000000028  0.2886110000000031   F   F   F
  0.5000000000000000  0.2999999999999972  0.2886110000000031   F   F   F
  0.3999999999999986  0.2999999999999972  0.3590739999999997   F   F   F
  0.5000000000000000  0.2000000000000028  0.3590739999999997   F   F   F
  0.3999999999999986  0.3999999999999986  0.2886110000000031   F   F   F
  0.5000000000000000  0.5000000000000000  0.2886110000000031   F   F   F
  0.3999999999999986  0.5000000000000000  0.3590739999999997   F   F   F
  0.5000000000000000  0.3999999999999986  0.3590739999999997   F   F   F
  0.3999999999999986  0.6000000000000014  0.2886110000000031   F   F   F
  0.5000000000000000  0.7000000000000028  0.2886110000000031   F   F   F
  0.3999999999999986  0.7000000000000028  0.3590739999999997   F   F   F
  0.5000000000000000  0.6000000000000014  0.3590739999999997   F   F   F
  0.3999999999999986  0.7999999999999972  0.2886110000000031   F   F   F
  0.5000000000000000  0.8999999999999986  0.2886110000000031   F   F   F
  0.3999999999999986  0.8999999999999986  0.3590739999999997   F   F   F
  0.5000000000000000  0.7999999999999972  0.3590739999999997   F   F   F
  0.6000000000000014  0.0000000000000000  0.2886110000000031   F   F   F
  0.7000000000000028  0.1000000000000014  0.2886110000000031   F   F   F
  0.6000000000000014  0.1000000000000014  0.3590739999999997   F   F   F
  0.7000000000000028  0.0000000000000000  0.3590739999999997   F   F   F
  0.6000000000000014  0.2000000000000028  0.2886110000000031   F   F   F
  0.7000000000000028  0.2999999999999972  0.2886110000000031   F   F   F
  0.6000000000000014  0.2999999999999972  0.3590739999999997   F   F   F
  0.7000000000000028  0.2000000000000028  0.3590739999999997   F   F   F
  0.6000000000000014  0.3999999999999986  0.2886110000000031   F   F   F
  0.7000000000000028  0.5000000000000000  0.2886110000000031   F   F   F
  0.6000000000000014  0.5000000000000000  0.3590739999999997   F   F   F
  0.7000000000000028  0.3999999999999986  0.3590739999999997   F   F   F
  0.6000000000000014  0.6000000000000014  0.2886110000000031   F   F   F
  0.7000000000000028  0.7000000000000028  0.2886110000000031   F   F   F
  0.6000000000000014  0.7000000000000028  0.3590739999999997   F   F   F
  0.7000000000000028  0.6000000000000014  0.3590739999999997   F   F   F
  0.6000000000000014  0.7999999999999972  0.2886110000000031   F   F   F
  0.7000000000000028  0.8999999999999986  0.2886110000000031   F   F   F
  0.6000000000000014  0.8999999999999986  0.3590739999999997   F   F   F
  0.7000000000000028  0.7999999999999972  0.3590739999999997   F   F   F
  0.7999999999999972  0.0000000000000000  0.2886110000000031   F   F   F
  0.8999999999999986  0.1000000000000014  0.2886110000000031   F   F   F
  0.7999999999999972  0.1000000000000014  0.3590739999999997   F   F   F
  0.8999999999999986  0.0000000000000000  0.3590739999999997   F   F   F
  0.7999999999999972  0.2000000000000028  0.2886110000000031   F   F   F
  0.8999999999999986  0.2999999999999972  0.2886110000000031   F   F   F
  0.7999999999999972  0.2999999999999972  0.3590739999999997   F   F   F
  0.8999999999999986  0.2000000000000028  0.3590739999999997   F   F   F
  0.7999999999999972  0.3999999999999986  0.2886110000000031   F   F   F
  0.8999999999999986  0.5000000000000000  0.2886110000000031   F   F   F
  0.7999999999999972  0.5000000000000000  0.3590739999999997   F   F   F
  0.8999999999999986  0.3999999999999986  0.3590739999999997   F   F   F
  0.7999999999999972  0.6000000000000014  0.2886110000000031   F   F   F
  0.8999999999999986  0.7000000000000028  0.2886110000000031   F   F   F
  0.7999999999999972  0.7000000000000028  0.3590739999999997   F   F   F
  0.8999999999999986  0.6000000000000014  0.3590739999999997   F   F   F
  0.7999999999999972  0.7999999999999972  0.2886110000000031   F   F   F
  0.8999999999999986  0.8999999999999986  0.2886110000000031   F   F   F
  0.7999999999999972  0.8999999999999986  0.3590739999999997   F   F   F
  0.8999999999999986  0.7999999999999972  0.3590739999999997   F   F   F
  0.0001829912860868  0.9998184816796800  0.5024851930960220   T   T   T
  0.1000697616989977  0.0998042673528701  0.5025109704193620   T   T   T
  0.0000801198296989  0.0999479148625625  0.4302876542152576   T   T   T
  0.1000552217357652  0.9999708923288043  0.4302723909718584   T   T   T
  0.0003787132242486  0.1998240136200720  0.5025297056205617   T   T   T
  0.1000727984125845  0.3000040332950328  0.5025103647610552   T   T   T
  0.0001039692687913  0.2999447832040470  0.4302780786478616   T   T   T
  0.1000654076486375  0.1999400369562408  0.4303011170740521   T   T   T
  0.0002879841044701  0.4000760904273781  0.5024631712934409   T   T   T
  0.1000308850519294  0.5001563262553728  0.5024875720785225   T   T   T
  0.0000712397862586  0.5000616949079930  0.4302655759415228   T   T   T
  0.1000374347313711  0.3999986393029252  0.4302726096387666   T   T   T
  0.0001362198605542  0.6001696727018450  0.5024980661977193   T   T   T
  0.1000119120104554  0.7001039246629148  0.5025080320723033   T   T   T
  0.0000313310989329  0.7000435563416075  0.4302583106347456   T   T   T
  0.1000115593590651  0.6000635501331252  0.4302422043847513   T   T   T
  0.0001175458408370  0.8000229474035977  0.5024853269894048   T   T   T
  0.1000472380268170  0.8999116560265340  0.5024829087636618   T   T   T
  0.0000452931958018  0.8999654944241449  0.4302480373075522   T   T   T
  0.1000250904052823  0.8000024826875561  0.4302540794709480   T   T   T
  0.1999139690619204  0.9998431748895049  0.5024986039311667   T   T   T
  0.2997891679806665  0.0998340891995583  0.5027568770902255   T   T   T
  0.2000646000090255  0.1000213736645863  0.4303299162107562   T   T   T
  0.3000088139641657  0.0000233980768613  0.4303271691367475   T   T   T
  0.1997154851521207  0.1998976455563363  0.5026347038084396   T   T   T
  0.2995464984599899  0.2999732178373956  0.5025434172231809   T   T   T
  0.2000001799482371  0.2998980632222942  0.4303018394812552   T   T   T
  0.3004122193363820  0.1999051642308432  0.4308077729205237   T   T   T
  0.1998013338907019  0.4001125208552937  0.5024398861068334   T   T   T
  0.2996199879149671  0.5002201059748711  0.5024573460976870   T   T   T
  0.1999540025241154  0.5000695562749125  0.4302443502728470   T   T   T
  0.2998719071746184  0.4000503580585268  0.4302493360393551   T   T   T
  0.1998909916276009  0.6001753252836901  0.5025042001933707   T   T   T
  0.2998409427189728  0.7001566770521681  0.5024948495748738   T   T   T
  0.1999754127847526  0.7000408195241260  0.4302592008052427   T   T   T
  0.2999658291003491  0.6000977954914469  0.4302864259287245   T   T   T
  0.1999101978014218  0.8000044050609022  0.5024956799405896   T   T   T
  0.2998391070856414  0.8999239555744752  0.5025179937103489   T   T   T
  0.2000130635864002  0.8999769192838039  0.4302559289329140   T   T   T
  0.2999981768362173  0.7999950826633918  0.4302717141118678   T   T   T
  0.3997697804763098  0.9996597754536229  0.5026420812366398   T   T   T
  0.4996443779166402  0.0994850930970236  0.5024215784374256   T   T   T
  0.3997738374401897  0.1004868177799487  0.4308398282346292   T   T   T
  0.4998275066758114  0.9999543620230251  0.4303086951403760   T   T   T
  0.3989965045056290  0.1995912337495969  0.5066334831426047   T   T   T
  0.4996575361322906  0.2996184954059383  0.5001644928249163   T   T   T
  0.3995999359852758  0.2994346381682740  0.4306126559482278   T   T   T
  0.4990976958452840  0.1996120969001400  0.4305789465242966   T   T   T
  0.3991250761604462  0.4005057222803182  0.5018327241103188   T   T   T
  0.4995494705965669  0.5008612179266256  0.5023755835586449   T   T   T
  0.4000331706779724  0.5003011683032322  0.4303772336380016   T   T   T
  0.4997460139916366  0.4003918240791666  0.4301068901051518   T   T   T
  0.3995487742636450  0.6002475741176138  0.5025924616704458   T   T   T
  0.4999063035577285  0.7003087053532748  0.5026979486611243   T   T   T
  0.4000782957583956  0.6999531950611707  0.4303403932915530   T   T   T
  0.5006220942128309  0.6000929582319069  0.4309173480429525   T   T   T
  0.3998431055263699  0.8000925696806775  0.5025043780910209   T   T   T
  0.4998995567821409  0.8999785074898896  0.5025155280771669   T   T   T
  0.3999678070314638  0.8999690514686407  0.4302963158493815   T   T   T
  0.5000736587871200  0.7999301896053543  0.4303403398539864   T   T   T
  0.6000071052717970  0.9998057202720690  0.5024392221679419   T   T   T
  0.7003439244701338  0.0995007494077846  0.5023681473072648   T   T   T
  0.5999483274380731  0.0997467820429335  0.4301895326192347   T   T   T
  0.7001006738145714  0.9999176544618067  0.4302833298343263   T   T   T
  0.5999032515312830  0.1988948477498505  0.5009736783675421   T   T   T
  0.7003546521625825  0.2993194129709448  0.5000991773227933   T   T   T
  0.5999419992610333  0.2995312976990890  0.4297731300099070   T   T   T
  0.7006063528724945  0.1995173595514722  0.4303763169915538   T   T   T
  0.6001764679679554  0.3995762864111719  0.4999435478052308   T   T   T
  0.7005252699762263  0.5008870186873209  0.5025843416602950   T   T   T
  0.6000732899393064  0.5009930708245630  0.4308868294074737   T   T   T
  0.7002974538361519  0.4003930706417859  0.4301681924294870   T   T   T
  0.5999975428357680  0.6017881634806787  0.5063310471182543   T   T   T
  0.7001296713305846  0.7003442825666516  0.5027000074810908   T   T   T
  0.6000159994466991  0.6995165329023441  0.4308308604545105   T   T   T
  0.6994201405210873  0.6000583648305682  0.4309716751405540   T   T   T
  0.6000100985800756  0.8004089817179149  0.5025925260940008   T   T   T
  0.7001155793421507  0.8999994568547461  0.5025100689096358   T   T   T
  0.5999853029731465  0.8999708478325815  0.4302945631247060   T   T   T
  0.6999281878227976  0.7999310889279024  0.4303387476838260   T   T   T
  0.8002644518742627  0.9997115788917950  0.5025623877860483   T   T   T
  0.9003934247522513  0.0997007626297348  0.5026159224711564   T   T   T
  0.8002573801383017  0.1001128055575063  0.4305441094994507   T   T   T
  0.9000746939359145  0.9999446540949348  0.4302849945065789   T   T   T
  0.8012650925877097  0.1993311709984712  0.5040931585135191   T   T   T
  0.9007234385117705  0.2998849488549761  0.5024558194807176   T   T   T
  0.8004663175634394  0.2996808916877992  0.4304123433099045   T   T   T
  0.9000377861111182  0.1998664254041321  0.4304566530060020   T   T   T
  0.8009538058047544  0.4003252161963817  0.5019549398938213   T   T   T
  0.9004083690290871  0.5001477896906871  0.5024965975866158   T   T   T
  0.7999642661620066  0.5002263253330187  0.4304600957750732   T   T   T
  0.9001524512717031  0.4000372035361405  0.4302885764841838   T   T   T
  0.8005054842361006  0.6002586774321879  0.5026102537047161   T   T   T
  0.9001851289509721  0.7001537991021041  0.5024849144396505   T   T   T
  0.7999318462250370  0.6999602624845683  0.4303541983227965   T   T   T
  0.9000327990134092  0.6000560432770741  0.4303012460493391   T   T   T
  0.8001842472344054  0.8000968825643560  0.5024968826452620   T   T   T
  0.9002010097504128  0.8999305680181956  0.5025026307667787   T   T   T
  0.8000399962923949  0.8999443674205210  0.4302785256931602   T   T   T
  0.9000250215330803  0.7999818198179166  0.4302695344493240   T   T   T
  0.0000000000000000  0.0000000000000000  0.3590739999999997   F   F   F
  0.1000000000000014  0.1000000000000014  0.3590739999999997   F   F   F
  0.0000000000000000  0.1000000000000014  0.2886110000000031   F   F   F
  0.1000000000000014  0.0000000000000000  0.2886110000000031   F   F   F
  0.0000000000000000  0.2000000000000028  0.3590739999999997   F   F   F
  0.1000000000000014  0.2999999999999972  0.3590739999999997   F   F   F
  0.0000000000000000  0.2999999999999972  0.2886110000000031   F   F   F
  0.1000000000000014  0.2000000000000028  0.2886110000000031   F   F   F
  0.0000000000000000  0.3999999999999986  0.3590739999999997   F   F   F
  0.1000000000000014  0.5000000000000000  0.3590739999999997   F   F   F
  0.0000000000000000  0.5000000000000000  0.2886110000000031   F   F   F
  0.1000000000000014  0.3999999999999986  0.2886110000000031   F   F   F
  0.0000000000000000  0.6000000000000014  0.3590739999999997   F   F   F
  0.1000000000000014  0.7000000000000028  0.3590739999999997   F   F   F
  0.0000000000000000  0.7000000000000028  0.2886110000000031   F   F   F
  0.1000000000000014  0.6000000000000014  0.2886110000000031   F   F   F
  0.0000000000000000  0.7999999999999972  0.3590739999999997   F   F   F
  0.1000000000000014  0.8999999999999986  0.3590739999999997   F   F   F
  0.0000000000000000  0.8999999999999986  0.2886110000000031   F   F   F
  0.1000000000000014  0.7999999999999972  0.2886110000000031   F   F   F
  0.2000000000000028  0.0000000000000000  0.3590739999999997   F   F   F
  0.2999999999999972  0.1000000000000014  0.3590739999999997   F   F   F
  0.2000000000000028  0.1000000000000014  0.2886110000000031   F   F   F
  0.2999999999999972  0.0000000000000000  0.2886110000000031   F   F   F
  0.2000000000000028  0.2000000000000028  0.3590739999999997   F   F   F
  0.2999999999999972  0.2999999999999972  0.3590739999999997   F   F   F
  0.2000000000000028  0.2999999999999972  0.2886110000000031   F   F   F
  0.2999999999999972  0.2000000000000028  0.2886110000000031   F   F   F
  0.2000000000000028  0.3999999999999986  0.3590739999999997   F   F   F
  0.2999999999999972  0.5000000000000000  0.3590739999999997   F   F   F
  0.2000000000000028  0.5000000000000000  0.2886110000000031   F   F   F
  0.2999999999999972  0.3999999999999986  0.2886110000000031   F   F   F
  0.2000000000000028  0.6000000000000014  0.3590739999999997   F   F   F
  0.2999999999999972  0.7000000000000028  0.3590739999999997   F   F   F
  0.2000000000000028  0.7000000000000028  0.2886110000000031   F   F   F
  0.2999999999999972  0.6000000000000014  0.2886110000000031   F   F   F
  0.2000000000000028  0.7999999999999972  0.3590739999999997   F   F   F
  0.2999999999999972  0.8999999999999986  0.3590739999999997   F   F   F
  0.2000000000000028  0.8999999999999986  0.2886110000000031   F   F   F
  0.2999999999999972  0.7999999999999972  0.2886110000000031   F   F   F
  0.3999999999999986  0.0000000000000000  0.3590739999999997   F   F   F
  0.5000000000000000  0.1000000000000014  0.3590739999999997   F   F   F
  0.3999999999999986  0.1000000000000014  0.2886110000000031   F   F   F
  0.5000000000000000  0.0000000000000000  0.2886110000000031   F   F   F
  0.3999999999999986  0.2000000000000028  0.3590739999999997   F   F   F
  0.5000000000000000  0.2999999999999972  0.3590739999999997   F   F   F
  0.3999999999999986  0.2999999999999972  0.2886110000000031   F   F   F
  0.5000000000000000  0.2000000000000028  0.2886110000000031   F   F   F
  0.3999999999999986  0.3999999999999986  0.3590739999999997   F   F   F
  0.5000000000000000  0.5000000000000000  0.3590739999999997   F   F   F
  0.3999999999999986  0.5000000000000000  0.2886110000000031   F   F   F
  0.5000000000000000  0.3999999999999986  0.2886110000000031   F   F   F
  0.3999999999999986  0.6000000000000014  0.3590739999999997   F   F   F
  0.5000000000000000  0.7000000000000028  0.3590739999999997   F   F   F
  0.3999999999999986  0.7000000000000028  0.2886110000000031   F   F   F
  0.5000000000000000  0.6000000000000014  0.2886110000000031   F   F   F
  0.3999999999999986  0.7999999999999972  0.3590739999999997   F   F   F
  0.5000000000000000  0.8999999999999986  0.3590739999999997   F   F   F
  0.3999999999999986  0.8999999999999986  0.2886110000000031   F   F   F
  0.5000000000000000  0.7999999999999972  0.2886110000000031   F   F   F
  0.6000000000000014  0.0000000000000000  0.3590739999999997   F   F   F
  0.7000000000000028  0.1000000000000014  0.3590739999999997   F   F   F
  0.6000000000000014  0.1000000000000014  0.2886110000000031   F   F   F
  0.7000000000000028  0.0000000000000000  0.2886110000000031   F   F   F
  0.6000000000000014  0.2000000000000028  0.3590739999999997   F   F   F
  0.7000000000000028  0.2999999999999972  0.3590739999999997   F   F   F
  0.6000000000000014  0.2999999999999972  0.2886110000000031   F   F   F
  0.7000000000000028  0.2000000000000028  0.2886110000000031   F   F   F
  0.6000000000000014  0.3999999999999986  0.3590739999999997   F   F   F
  0.7000000000000028  0.5000000000000000  0.3590739999999997   F   F   F
  0.6000000000000014  0.5000000000000000  0.2886110000000031   F   F   F
  0.7000000000000028  0.3999999999999986  0.2886110000000031   F   F   F
  0.6000000000000014  0.6000000000000014  0.3590739999999997   F   F   F
  0.7000000000000028  0.7000000000000028  0.3590739999999997   F   F   F
  0.6000000000000014  0.7000000000000028  0.2886110000000031   F   F   F
  0.7000000000000028  0.6000000000000014  0.2886110000000031   F   F   F
  0.6000000000000014  0.7999999999999972  0.3590739999999997   F   F   F
  0.7000000000000028  0.8999999999999986  0.3590739999999997   F   F   F
  0.6000000000000014  0.8999999999999986  0.2886110000000031   F   F   F
  0.7000000000000028  0.7999999999999972  0.2886110000000031   F   F   F
  0.7999999999999972  0.0000000000000000  0.3590739999999997   F   F   F
  0.8999999999999986  0.1000000000000014  0.3590739999999997   F   F   F
  0.7999999999999972  0.1000000000000014  0.2886110000000031   F   F   F
  0.8999999999999986  0.0000000000000000  0.2886110000000031   F   F   F
  0.7999999999999972  0.2000000000000028  0.3590739999999997   F   F   F
  0.8999999999999986  0.2999999999999972  0.3590739999999997   F   F   F