Au                                      
   1.00000000000000     
    20.0000000000000000    0.0000000000000000    0.0000000000000000
     0.0000000000000000   20.0000000000000000    0.0000000000000000
     0.0000000000000000    0.0000000000000000   20.0000000000000000
   Au
     8
Direct
  0.5873149350860629  0.5212512688427822  0.5350861620751672
  0.5940072587761094  0.4498391375191133  0.6438219180188725
  0.4055574163752809  0.5510000126701016  0.3561642943615695
  0.3648338302692196  0.3939966391136664  0.5509153779401785
  0.4125845508574528  0.4789145253665907  0.4644400666975699
  0.5155541825994518  0.5599738080703247  0.4253277990320470
  0.6351690488558361  0.6059899589951314  0.4485037843371771
  0.4842962469355783  0.4403007653422932  0.5742972298974109
 
  0.00000000E+00  0.00000000E+00  0.00000000E+00
  0.00000000E+00  0.00000000E+00  0.00000000E+00
  0.00000000E+00  0.00000000E+00  0.00000000E+00
  0.00000000E+00  0.00000000E+00  0.00000000E+00
  0.00000000E+00  0.00000000E+00  0.00000000E+00
  0.00000000E+00  0.00000000E+00  0.00000000E+00
  0.00000000E+00  0.00000000E+00  0.00000000E+00
  0.00000000E+00  0.00000000E+00  0.00000000E+00
