Ag                                      
   1.0000000000000000     
    20.0000000000000000    0.0000000000000000    0.0000000000000000
     0.0000000000000000   20.0000000000000000    0.0000000000000000
     0.0000000000000000    0.0000000000000000   20.0000000000000000
   Ag
     8
Direct
  0.5878748975787360  0.5213966251727484  0.5353071386317083
  0.5958414172948352  0.4489020790418294  0.6465328015989655
  0.4037137600413843  0.5519646696796485  0.3534751113141965
  0.3622989536438723  0.3920116292834237  0.5518569915715119
  0.4120268516892196  0.4787441495058360  0.4642300258768088
  0.5156396903249529  0.5603753326513328  0.4248639054205441
  0.6377141299069180  0.6079567595001762  0.4475327255658357
  0.4842077692750735  0.4399148710850014  0.5747579323804146

  0.00000000E+00  0.00000000E+00  0.00000000E+00
  0.00000000E+00  0.00000000E+00  0.00000000E+00
  0.00000000E+00  0.00000000E+00  0.00000000E+00
  0.00000000E+00  0.00000000E+00  0.00000000E+00
  0.00000000E+00  0.00000000E+00  0.00000000E+00
  0.00000000E+00  0.00000000E+00  0.00000000E+00
  0.00000000E+00  0.00000000E+00  0.00000000E+00
  0.00000000E+00  0.00000000E+00  0.00000000E+00
