Mg  O                                   
   1.0000000000000000     
    21.1388521970183838    0.0000000000000000    0.0000000000000000
     0.0000000000000000   21.1388521970183838    0.0000000000000000
     0.0000000000000000    0.0000000000000000   30.0000000000000000
   Au   Mg   O 
    20   200   200
Selective dynamics
Direct
  0.5358432049370876  0.4679887095574276  0.6301636225284594   T   T   T
  0.4038677290312350  0.4752199178838405  0.6356117769230114   T   T   T
  0.2754713326109073  0.4832290212891224  0.6240022655580124   T   T   T
  0.1528686928129537  0.4901034618443147  0.5923115747591514   T   T   T
  0.6029526895360633  0.5747282997058412  0.6188693874180837   T   T   T
  0.4755236201714301  0.5821841771765449  0.6349557459195003   T   T   T
  0.3475507219251595  0.5917002574441804  0.6291630590103608   T   T   T
  0.2316366361189151  0.5916787502864664  0.5854255190105532   T   T   T
  0.5873685253817688  0.3549015137796435  0.6180202740257513   T   T   T
  0.4603880717148987  0.3601752756649062  0.6255464325612560   T   T   T
  0.3334720759285070  0.3662673112888413  0.6238365257213603   T   T   T
  0.2104106924657301  0.3773869207982274  0.5962401726633549   T   T   T
  0.6616428417085115  0.6727065509724734  0.5794744793656109   T   T   T
  0.5445934574762998  0.6895225349230184  0.6138302117613395   T   T   T
  0.4205147863633089  0.7006175974586313  0.6249985026172244   T   T   T
  0.3131151911313648  0.6908385992112024  0.5778355524632172   T   T   T
  0.6306979875929228  0.2484008468742780  0.5834412182550608   T   T   T
  0.5104538965766043  0.2434186012245959  0.6063369277624249   T   T   T
  0.3868099242437867  0.2522541023067068  0.6032295380458709   T   T   T
  0.2598570083855471  0.2615753587781738  0.6004667402582762   T   T   T
 -0.0000035054327157  0.0001396947002548  0.4304927767813237   T   T   T
  0.1000547991776907  0.1001305901393509  0.4305872378469481   T   T   T
 -0.0000154927899865  0.0999907061219741  0.5010300169636429   T   T   T
  0.0998241603228092  0.0003270720134290  0.5010172698770216   T   T   T
  0.0001092277304398  0.1999568681938556  0.4305518145500009   T   T   T
  0.1002804097732595  0.2998249675142826  0.4307293638464728   T   T   T
  0.9998436697121124  0.2996265652189307  0.5011523757004613   T   T   T
  0.0998322454385134  0.1997866538223571  0.5012668802821720   T   T   T
  0.0000396114454156  0.3998110313906378  0.4306395085824902   T   T   T
  0.1001156962197576  0.4997546833684606  0.4305554704923106   T   T   T
  0.9990383462777939  0.4996200526610908  0.5012610567446049   T   T   T
  0.0994795955119916  0.3989874083493212  0.5017100171573265   T   T   T
  0.9998105402886023  0.5999458393849598  0.4306505111413025   T   T   T
  0.0996716408987358  0.7001888132004231  0.4306262051515199   T   T   T
  0.9995929537135805  0.7004158509674405  0.5011491066694539   T   T   T
  0.0983807336056902  0.6003975459305914  0.5017084568727932   T   T   T
  0.9998721929722421  0.8001762105615025  0.4305285329234942   T   T   T
  0.0998936412151348  0.9003210817379943  0.4304765526498713   T   T   T
  0.9998464229182823  0.9004271385130754  0.5009815486948591   T   T   T
  0.0993402828667273  0.8009377539693477  0.5010685213916694   T   T   T
  0.1999806400108573  0.0003359128298095  0.4305296206363437   T   T   T
  0.3001342211508475  0.1003474528655392  0.4306801992040180   T   T   T
  0.2000644401381870  0.0999042502227613  0.5011796998417206   T   T   T
  0.3000048624836036  0.0004604680609862  0.5010401614024612   T   T   T
  0.2003072626260946  0.2000818696647194  0.4305829212077516   T   T   T
  0.3003458433336399  0.2998009769422781  0.4305577403624173   T   T   T
  0.2005622584348727  0.2990027138937096  0.5022169523370814   T   T   T
  0.3004181954361799  0.2000461529349786  0.5020752883907783   T   T   T
  0.2002529524674358  0.3993737043176587  0.4304729105390530   T   T   T
  0.3002444950444360  0.4993343423334392  0.4306319223790672   T   T   T
  0.2007823997836420  0.4985746318518041  0.5025616720997191   T   T   T
  0.3010537833101915  0.3992477311347863  0.5018586818519026   T   T   T
  0.2000225094587916  0.5999473766292283  0.4302396282285623   T   T   T
  0.3000880484398925  0.7003581889132702  0.4297144063466912   T   T   T
  0.1978250893643378  0.7020378157519652  0.5014621787811496   T   T   T
  0.3021064044299349  0.5977308787227714  0.5014353611258626   T   T   T
  0.1998164223609084  0.8005382844173752  0.4305540942866749   T   T   T
  0.2999935123303328  0.9006557644062666  0.4303685489787815   T   T   T
  0.1995685359732871  0.9008562506809052  0.5010131893383604   T   T   T
  0.3000256877834095  0.8030154533250208  0.5008230110337905   T   T   T
  0.4000821182480308  0.0003349642834128  0.4305273499884303   T   T   T
  0.5000286589338387  0.1003943120483500  0.4307936120242248   T   T   T
  0.4001337185019855  0.0998840586805159  0.5012762282830868   T   T   T
  0.5000195932164707  0.0002375208674060  0.5010770810520158   T   T   T
  0.4001545659501593  0.2002250744810368  0.4307184932491132   T   T   T
  0.4997937444664291  0.2999103722841214  0.4306911369445322   T   T   T
  0.4004184521253584  0.2999172815037762  0.5024983040093746   T   T   T
  0.4996220599465935  0.2001412063528277  0.5030011338349896   T   T   T
  0.4002194706472834  0.3996049331438258  0.4307216350957696   T   T   T
  0.4999968356797246  0.4997430997606559  0.4306017976502040   T   T   T
  0.4006235827722119  0.4992661129224525  0.5016410635557013   T   T   T
  0.4999451506635162  0.3999408189502730  0.5020186530073146   T   T   T
  0.4003714585234854  0.5998108758068210  0.4305746908467199   T   T   T
  0.4998885846862468  0.6999279797595971  0.4303060782380050   T   T   T
  0.4025525997658109  0.7005389383875871  0.5016726121283782   T   T   T
  0.4999725802964272  0.5992839693372770  0.5016800693640102   T   T   T
  0.4000978849630149  0.8002711408278785  0.4305713914080437   T   T   T
  0.5000049209256112  0.9001774625228561  0.4304996725769490   T   T   T
  0.4002293680149989  0.9007669198897171  0.5010180877938617   T   T   T
  0.4999281694011803  0.8008377747897495  0.5013333196920458   T   T   T
  0.5999754902128820  0.0000794188243088  0.4304944903089354   T   T   T
  0.7000580449629371  0.0998446829785045  0.4304527914210787   T   T   T
  0.6001564471477220  0.0991317612057164  0.5012041776364575   T   T   T
  0.7002348958272082  0.0000495588574639  0.5010315931041217   T   T   T
  0.5998661950682788  0.2000671475427458  0.4303304406479163   T   T   T
  0.6998944300587078  0.2999294920675685  0.4303956418031867   T   T   T
  0.5991239509223399  0.3014724925155027  0.5016185107188731   T   T   T
  0.7013699817790070  0.1991388428377931  0.5004091501192185   T   T   T
  0.5997495094264347  0.4000242416026022  0.4305568920171234   T   T   T
  0.6997455011151446  0.4995418874450800  0.4306285269902031   T   T   T
  0.5994680522853914  0.4995501352089975  0.5017736966939200   T   T   T
  0.6999393555647256  0.4000239102503754  0.5014892277942419   T   T   T
  0.5997134489174916  0.5995779747603055  0.4305078003093841   T   T   T
  0.6997940449986395  0.6998131023025397  0.4294671929223267   T   T   T
  0.5968621365472829  0.7001367956835922  0.5015299506141084   T   T   T
  0.6997562358664050  0.5972730810450605  0.5016101141520523   T   T   T
  0.5999161072930099  0.8001280737062620  0.4307757868809761   T   T   T
  0.7000010698205775  0.9001244875386328  0.4306429151944822   T   T   T
  0.5998373085115586  0.9004544651981350  0.5010647875629771   T   T   T
  0.6998997509864189  0.8017350114006835  0.5020865115136826   T   T   T
  0.8000611298631866  0.0000375212054176  0.4305066358454400   T   T   T
  0.9000891417041902  0.0999925608461503  0.4304959069606687   T   T   T
  0.8003579680756958  0.0997252873436356  0.5009871347086323   T   T   T
  0.9001008603239707  0.0001257993258890  0.5009955094825941   T   T   T
  0.8002900770492792  0.1999379473441676  0.4304111897522945   T   T   T
  0.9000981253274922  0.2999025371324019  0.4305401886505879   T   T   T
  0.8005885340850080  0.2998090241307780  0.5011986992679063   T   T   T
  0.9001715213675788  0.1997496859167500  0.5009959052099811   T   T   T
  0.7999113052130021  0.3998094272455266  0.4306412230189127   T   T   T
  0.8998379742368907  0.4998380555605051  0.4305474669929983   T   T   T
  0.8001535005253688  0.4994959580632712  0.5011934864052155   T   T   T
  0.8999125775582051  0.3996450093007828  0.5011001552130905   T   T   T
  0.7999097653369389  0.5998350899423448  0.4308553824979235   T   T   T
  0.8999501109809737  0.7000250057043893  0.4306564738674860   T   T   T
  0.8016421817767755  0.6999355343372934  0.5020893487946800   T   T   T
  0.8999472366406276  0.5997475673105732  0.5011426693153322   T   T   T
  0.7999340952650920  0.8000349544722671  0.4309428053838786   T   T   T
  0.8999650994190321  0.9001049441006111  0.4305127202639426   T   T   T
  0.8002617245724293  0.9003579926462706  0.5011339127680612   T   T   T
  0.9000872326940929  0.8004877923627864  0.5011339055348270   T   T   T
  0.0000000000000000  0.0000000000000000  0.2886110000000031   F   F   F
  0.1000000000000014  0.1000000000000014  0.2886110000000031   F   F   F
  0.0000000000000000  0.1000000000000014  0.3590739999999997   F   F   F
  0.1000000000000014  0.0000000000000000  0.3590739999999997   F   F   F
  0.0000000000000000  0.2000000000000028  0.2886110000000031   F   F   F
  0.1000000000000014  0.2999999999999972  0.2886110000000031   F   F   F
  0.0000000000000000  0.2999999999999972  0.3590739999999997   F   F   F
  0.1000000000000014  0.2000000000000028  0.3590739999999997   F   F   F
  0.0000000000000000  0.3999999999999986  0.2886110000000031   F   F   F
  0.1000000000000014  0.5000000000000000  0.2886110000000031   F   F   F
  0.0000000000000000  0.5000000000000000  0.3590739999999997   F   F   F
  0.1000000000000014  0.3999999999999986  0.3590739999999997   F   F   F
  0.0000000000000000  0.6000000000000014  0.2886110000000031   F   F   F
  0.1000000000000014  0.7000000000000028  0.2886110000000031   F   F   F
  0.0000000000000000  0.7000000000000028  0.3590739999999997   F   F   F
  0.1000000000000014  0.6000000000000014  0.3590739999999997   F   F   F
  0.0000000000000000  0.7999999999999972  0.2886110000000031   F   F   F
  0.1000000000000014  0.8999999999999986  0.2886110000000031   F   F   F
  0.0000000000000000  0.8999999999999986  0.3590739999999997   F   F   F
  0.1000000000000014  0.7999999999999972  0.3590739999999997   F   F   F
  0.2000000000000028  0.0000000000000000  0.2886110000000031   F   F   F
  0.2999999999999972  0.1000000000000014  0.2886110000000031   F   F   F
  0.2000000000000028  0.1000000000000014  0.3590739999999997   F   F   F
  0.2999999999999972  0.0000000000000000  0.3590739999999997   F   F   F
  0.2000000000000028  0.2000000000000028  0.2886110000000031   F   F   F
  0.2999999999999972  0.2999999999999972  0.2886110000000031   F   F   F
  0.2000000000000028  0.2999999999999972  0.3590739999999997   F   F   F
  0.2999999999999972  0.2000000000000028  0.3590739999999997   F   F   F
  0.2000000000000028  0.3999999999999986  0.2886110000000031   F   F   F
  0.2999999999999972  0.5000000000000000  0.2886110000000031   F   F   F
  0.2000000000000028  0.5000000000000000  0.3590739999999997   F   F   F
  0.2999999999999972  0.3999999999999986  0.3590739999999997   F   F   F
  0.2000000000000028  0.6000000000000014  0.2886110000000031   F   F   F
  0.2999999999999972  0.7000000000000028  0.2886110000000031   F   F   F
  0.2000000000000028  0.7000000000000028  0.3590739999999997   F   F   F
  0.2999999999999972  0.6000000000000014  0.3590739999999997   F   F   F
  0.2000000000000028  0.7999999999999972  0.2886110000000031   F   F   F
  0.2999999999999972  0.8999999999999986  0.2886110000000031   F   F   F
  0.2000000000000028  0.8999999999999986  0.3590739999999997   F   F   F
  0.2999999999999972  0.7999999999999972  0.3590739999999997   F   F   F
  0.3999999999999986  0.0000000000000000  0.2886110000000031   F   F   F
  0.5000000000000000  0.1000000000000014  0.2886110000000031   F   F   F
  0.3999999999999986  0.1000000000000014  0.3590739999999997   F   F   F
  0.5000000000000000  0.0000000000000000  0.3590739999999997   F   F   F
  0.3999999999999986  0.2000000000000028  0.2886110000000031   F   F   F
  0.5000000000000000  0.2999999999999972  0.2886110000000031   F   F   F
  0.3999999999999986  0.2999999999999972  0.3590739999999997   F   F   F
  0.5000000000000000  0.2000000000000028  0.3590739999999997   F   F   F
  0.3999999999999986  0.3999999999999986  0.2886110000000031   F   F   F
  0.5000000000000000  0.5000000000000000  0.2886110000000031   F   F   F
  0.3999999999999986  0.5000000000000000  0.3590739999999997   F   F   F
  0.5000000000000000  0.3999999999999986  0.3590739999999997   F   F   F
  0.3999999999999986  0.6000000000000014  0.2886110000000031   F   F   F
  0.5000000000000000  0.7000000000000028  0.2886110000000031   F   F   F
  0.3999999999999986  0.7000000000000028  0.3590739999999997   F   F   F
  0.5000000000000000  0.6000000000000014  0.3590739999999997   F   F   F
  0.3999999999999986  0.7999999999999972  0.2886110000000031   F   F   F
  0.5000000000000000  0.8999999999999986  0.2886110000000031   F   F   F
  0.3999999999999986  0.8999999999999986  0.3590739999999997   F   F   F
  0.5000000000000000  0.7999999999999972  0.3590739999999997   F   F   F
  0.6000000000000014  0.0000000000000000  0.2886110000000031   F   F   F
  0.7000000000000028  0.1000000000000014  0.2886110000000031   F   F   F
  0.6000000000000014  0.1000000000000014  0.3590739999999997   F   F   F
  0.7000000000000028  0.0000000000000000  0.3590739999999997   F   F   F
  0.6000000000000014  0.2000000000000028  0.2886110000000031   F   F   F
  0.7000000000000028  0.2999999999999972  0.2886110000000031   F   F   F
  0.6000000000000014  0.2999999999999972  0.3590739999999997   F   F   F
  0.7000000000000028  0.2000000000000028  0.3590739999999997   F   F   F
  0.6000000000000014  0.3999999999999986  0.2886110000000031   F   F   F
  0.7000000000000028  0.5000000000000000  0.2886110000000031   F   F   F
  0.6000000000000014  0.5000000000000000  0.3590739999999997   F   F   F
  0.7000000000000028  0.3999999999999986  0.3590739999999997   F   F   F
  0.6000000000000014  0.6000000000000014  0.2886110000000031   F   F   F
  0.7000000000000028  0.7000000000000028  0.2886110000000031   F   F   F
  0.6000000000000014  0.7000000000000028  0.3590739999999997   F   F   F
  0.7000000000000028  0.6000000000000014  0.3590739999999997   F   F   F
  0.6000000000000014  0.7999999999999972  0.2886110000000031   F   F   F
  0.7000000000000028  0.8999999999999986  0.2886110000000031   F   F   F
  0.6000000000000014  0.8999999999999986  0.3590739999999997   F   F   F
  0.7000000000000028  0.7999999999999972  0.3590739999999997   F   F   F
  0.7999999999999972  0.0000000000000000  0.2886110000000031   F   F   F
  0.8999999999999986  0.1000000000000014  0.2886110000000031   F   F   F
  0.7999999999999972  0.1000000000000014  0.3590739999999997   F   F   F
  0.8999999999999986  0.0000000000000000  0.3590739999999997   F   F   F
  0.7999999999999972  0.2000000000000028  0.2886110000000031   F   F   F
  0.8999999999999986  0.2999999999999972  0.2886110000000031   F   F   F
  0.7999999999999972  0.2999999999999972  0.3590739999999997   F   F   F
  0.8999999999999986  0.2000000000000028  0.3590739999999997   F   F   F
  0.7999999999999972  0.3999999999999986  0.2886110000000031   F   F   F
  0.8999999999999986  0.5000000000000000  0.2886110000000031   F   F   F
  0.7999999999999972  0.5000000000000000  0.3590739999999997   F   F   F
  0.8999999999999986  0.3999999999999986  0.3590739999999997   F   F   F
  0.7999999999999972  0.6000000000000014  0.2886110000000031   F   F   F
  0.8999999999999986  0.7000000000000028  0.2886110000000031   F   F   F
  0.7999999999999972  0.7000000000000028  0.3590739999999997   F   F   F
  0.8999999999999986  0.6000000000000014  0.3590739999999997   F   F   F
  0.7999999999999972  0.7999999999999972  0.2886110000000031   F   F   F
  0.8999999999999986  0.8999999999999986  0.2886110000000031   F   F   F
  0.7999999999999972  0.8999999999999986  0.3590739999999997   F   F   F
  0.8999999999999986  0.7999999999999972  0.3590739999999997   F   F   F
  0.9998669759168660  0.0000358582796380  0.5024366059293344   T   T   T
  0.0998323035560757  0.0999231353413968  0.5025327177041038   T   T   T
 -0.0000111659220930  0.0999707838089820  0.4302311291322580   T   T   T
  0.0999145595353361  0.0000214030116180  0.4302482398121444   T   T   T
  0.9998873517262933  0.1998118480084811  0.5025034268304557   T   T   T
  0.0997184907940553  0.2996974693036033  0.5026752683650019   T   T   T
  0.0000840219254708  0.3000219169385646  0.4303298318553185   T   T   T
  0.0999977354207181  0.1999420445398492  0.4303993441168033   T   T   T
  0.9998005760224240  0.3999321065205307  0.5025858415243124   T   T   T
  0.0990625995803934  0.5002315252876652  0.5035514652044358   T   T   T
  0.0001776825090675  0.5001342479315166  0.4304893927455600   T   T   T
  0.0999928697691298  0.4002716349984294  0.4305849168859113   T   T   T
  0.9996221467282971  0.6000798526620649  0.5026368554393850   T   T   T
  0.0993589823526128  0.7004001019691407  0.5026189063505242   T   T   T
  0.9999440734070629  0.6999576647856308  0.4303392920411480   T   T   T
  0.1003032314476996  0.5999752889144730  0.4308747823036113   T   T   T
  0.9998043767267460  0.8002478901853010  0.5024686683449584   T   T   T
  0.0996864800701559  0.9002965903703349  0.5024272148849861   T   T   T
  0.9999149756346249  0.8999629598737020  0.4302249140099866   T   T   T
  0.0999260849639808  0.7999900665426679  0.4302965933904344   T   T   T
  0.1997571845856710  0.0000797870745174  0.5024656762306754   T   T   T
  0.2999359694718780  0.0997459819582682  0.5025332574748621   T   T   T
  0.1998866443620951  0.1000190605474401  0.4303363919276420   T   T   T
  0.2999368822427255  0.0001277268762597  0.4302134451204079   T   T   T
  0.1997933630999205  0.1994776072304673  0.5028262518169913   T   T   T
  0.3004469885051549  0.3000349712070845  0.5007191981209655   T   T   T
  0.1997450265851878  0.2997787167497187  0.4303386650579348   T   T   T
  0.2999304629548629  0.1997152306831843  0.4303334221634295   T   T   T
  0.1996180604578348  0.3991891112906730  0.5017831096567844   T   T   T
  0.3001840325137767  0.4994748258902573  0.5014489280114427   T   T   T
  0.1996362314098725  0.5004934607659709  0.4310436706121022   T   T   T
  0.2997578687893118  0.4000526703724734  0.4301404334707449   T   T   T
  0.1991502671944817  0.6014503150898779  0.5041746823865708   T   T   T
  0.2986303282809914  0.7026272656239210  0.5026711453963046   T   T   T
  0.2000816480194778  0.6998945290220449  0.4308272408092337   T   T   T
  0.2993434651666842  0.6006935480517727  0.4309338840471160   T   T   T
  0.1996075305605031  0.8008096703223366  0.5024294566643009   T   T   T
  0.2998413555170724  0.9007825306670598  0.5023164728735592   T   T   T
  0.1999033018502022  0.9001239255796645  0.4302264780508565   T   T   T
  0.2997274018650122  0.8000414512256895  0.4303584214716117   T   T   T
  0.4000770079086268  0.0000066943908044  0.5024072929138961   T   T   T
  0.5003362205845395  0.0996880393251021  0.5025198898476302   T   T   T
  0.4001022120852854  0.0999138874260201  0.4302987534593918   T   T   T
  0.5001361235493471  0.9999628551873997  0.4302641996817385   T   T   T
  0.4000089950189799  0.1992389149480505  0.5021417445591567   T   T   T
  0.5001118482331161  0.3001452294994089  0.5011430369647388   T   T   T
  0.4001061342954027  0.2998377879669555  0.4301234907435722   T   T   T
  0.5004474347270376  0.1997895690765785  0.4305933207568299   T   T   T
  0.4002194529097400  0.4000626003825527  0.5020568448348205   T   T   T
  0.4998562218638228  0.5000283472080838  0.5019594114972519   T   T   T
  0.3998663159063934  0.5001285947259618  0.4301414954188599   T   T   T
  0.5001085074418130  0.4000726878494275  0.4301498254056677   T   T   T
  0.4001404243415908  0.6003499983369527  0.5014562934472997   T   T   T
  0.4997322959528109  0.7004218677439695  0.5012747631611624   T   T   T
  0.3993402966982250  0.7002793799140337  0.4304641931187821   T   T   T
  0.4998966620908518  0.6002801658651696  0.4299501901628862   T   T   T
  0.3997877625409444  0.8006149438802651  0.5021247388503606   T   T   T
  0.5000585976937367  0.9002119380029315  0.5023938989252024   T   T   T
  0.3999150754238410  0.9000969733938468  0.4302082712566650   T   T   T
  0.5000274360717450  0.8000556627530234  0.4302106722864197   T   T   T
  0.6002476454884216  0.9997888077376922  0.5024234943096411   T   T   T
  0.7004857491208847  0.0995351383898722  0.5023163857009855   T   T   T
  0.6002527751668705  0.0999505289796231  0.4303272771361485   T   T   T
  0.7001189901736486  0.9998402872094666  0.4302334384629131   T   T   T
  0.6011623406122933  0.1986199804821783  0.5026163059226656   T   T   T
  0.7008170456453204  0.2995495624348467  0.5028951539977694   T   T   T
  0.6004395470204683  0.2997283452547995  0.4304478950097142   T   T   T
  0.7002082381513642  0.1999009071427424  0.4302264519057485   T   T   T
  0.6003381993614040  0.4004469200648249  0.5016966691818000   T   T   T
  0.7003089707182405  0.4994406481830969  0.5023288763871430   T   T   T
  0.6002778545200785  0.4999213977336568  0.4300089432542789   T   T   T
  0.7002502407858963  0.3996813736786625  0.4303770392063109   T   T   T
  0.5996967306743582  0.5994750729662303  0.5003707738753888   T   T   T
  0.7011702802965979  0.7005056755486931  0.5085955190850934   T   T   T
  0.6009164233721761  0.7002482955308765  0.4307102647568600   T   T   T
  0.7002760699022228  0.6008169187667518  0.4308105233289374   T   T   T
  0.6001159718109301  0.8003058737628691  0.5022509074138276   T   T   T
  0.7001507334397775  0.9002315920972539  0.5026385701716916   T   T   T
  0.6002194094244686  0.8999162282235814  0.4302625052017697   T   T   T
  0.7001005492221364  0.7990715286628286  0.4310710506624715   T   T   T
  0.8002352453910649  0.9998575829431888  0.5024533177982728   T   T   T
  0.9001031905725962  0.0998401550445689  0.5024297850185563   T   T   T
  0.8001193621446956  0.0998967614232453  0.4302021427002296   T   T   T
  0.8999951221082694  0.9999093443318422  0.4302189076755745   T   T   T
  0.8005128107899697  0.1997050035744360  0.5022899163910479   T   T   T
  0.9001443990485243  0.2998242098876926  0.5024998677135794   T   T   T
  0.8000646700799664  0.2998890054360426  0.4303545480095828   T   T   T
  0.9001188535348263  0.1999651534577462  0.4302101918464165   T   T   T
  0.8002096145392072  0.3998028853653113  0.5025485572722074   T   T   T
  0.8998863405376203  0.4999339829258259  0.5025124471946867   T   T   T
  0.7999697598024810  0.5000382386443130  0.4303199108198248   T   T   T
  0.9000595584106988  0.4000280984222570  0.4302995243355313   T   T   T
  0.8000712956295079  0.6000079594934753  0.5025944960526617   T   T   T
  0.9001890545456265  0.7001025181843227  0.5026878422747968   T   T   T
  0.7991458184481111  0.7000257307551973  0.4310855979818101   T   T   T
  0.8999212657649823  0.6001431553973789  0.4303590831961381   T   T   T
  0.8000292715672913  0.8000381147074185  0.5028224907155393   T   T   T
  0.9000029257807091  0.9000628526036528  0.5024692520643368   T   T   T
  0.7999085298748844  0.8997979791537031  0.4303315161444633   T   T   T
  0.8998552362831114  0.7998299414631636  0.4303481501386135   T   T   T
  0.0000000000000000  0.0000000000000000  0.3590739999999997   F   F   F
  0.1000000000000014  0.1000000000000014  0.3590739999999997   F   F   F
  0.0000000000000000  0.1000000000000014  0.2886110000000031   F   F   F
  0.1000000000000014  0.0000000000000000  0.2886110000000031   F   F   F
  0.0000000000000000  0.2000000000000028  0.3590739999999997   F   F   F
  0.1000000000000014  0.2999999999999972  0.3590739999999997   F   F   F
  0.0000000000000000  0.2999999999999972  0.2886110000000031   F   F   F
  0.1000000000000014  0.2000000000000028  0.2886110000000031   F   F   F
  0.0000000000000000  0.3999999999999986  0.3590739999999997   F   F   F
  0.1000000000000014  0.5000000000000000  0.3590739999999997   F   F   F
  0.0000000000000000  0.5000000000000000  0.2886110000000031   F   F   F
  0.1000000000000014  0.3999999999999986  0.2886110000000031   F   F   F
  0.0000000000000000  0.6000000000000014  0.3590739999999997   F   F   F
  0.1000000000000014  0.7000000000000028  0.3590739999999997   F   F   F
  0.0000000000000000  0.7000000000000028  0.2886110000000031   F   F   F
  0.1000000000000014  0.6000000000000014  0.2886110000000031   F   F   F
  0.0000000000000000  0.7999999999999972  0.3590739999999997   F   F   F
  0.1000000000000014  0.8999999999999986  0.3590739999999997   F   F   F
  0.0000000000000000  0.8999999999999986  0.2886110000000031   F   F   F
  0.1000000000000014  0.7999999999999972  0.2886110000000031   F   F   F
  0.2000000000000028  0.0000000000000000  0.3590739999999997   F   F   F
  0.2999999999999972  0.1000000000000014  0.3590739999999997   F   F   F
  0.2000000000000028  0.1000000000000014  0.2886110000000031   F   F   F
  0.2999999999999972  0.0000000000000000  0.2886110000000031   F   F   F
  0.2000000000000028  0.2000000000000028  0.3590739999999997   F   F   F
  0.2999999999999972  0.2999999999999972  0.3590739999999997   F   F   F
  0.2000000000000028  0.2999999999999972  0.2886110000000031   F   F   F
  0.2999999999999972  0.2000000000000028  0.2886110000000031   F   F   F
  0.2000000000000028  0.3999999999999986  0.3590739999999997   F   F   F
  0.2999999999999972  0.5000000000000000  0.3590739999999997   F   F   F
  0.2000000000000028  0.5000000000000000  0.2886110000000031   F   F   F
  0.2999999999999972  0.3999999999999986  0.2886110000000031   F   F   F
  0.2000000000000028  0.6000000000000014  0.3590739999999997   F   F   F
  0.2999999999999972  0.7000000000000028  0.3590739999999997   F   F   F
  0.2000000000000028  0.7000000000000028  0.2886110000000031   F   F   F
  0.2999999999999972  0.6000000000000014  0.2886110000000031   F   F   F
  0.2000000000000028  0.7999999999999972  0.3590739999999997   F   F   F
  0.2999999999999972  0.8999999999999986  0.3590739999999997   F   F   F
  0.2000000000000028  0.8999999999999986  0.2886110000000031   F   F   F
  0.2999999999999972  0.7999999999999972  0.2886110000000031   F   F   F
  0.3999999999999986  0.0000000000000000  0.3590739999999997   F   F   F
  0.5000000000000000  0.1000000000000014  0.3590739999999997   F   F   F
  0.3999999999999986  0.1000000000000014  0.2886110000000031   F   F   F
  0.5000000000000000  0.0000000000000000  0.2886110000000031   F   F   F
  0.3999999999999986  0.2000000000000028  0.3590739999999997   F   F   F
  0.5000000000000000  0.2999999999999972  0.3590739999999997   F   F   F
  0.3999999999999986  0.2999999999999972  0.2886110000000031   F   F   F
  0.5000000000000000  0.2000000000000028  0.2886110000000031   F   F   F
  0.3999999999999986  0.3999999999999986  0.3590739999999997   F   F   F
  0.5000000000000000  0.5000000000000000  0.3590739999999997   F   F   F
  0.3999999999999986  0.5000000000000000  0.2886110000000031   F   F   F
  0.5000000000000000  0.3999999999999986  0.2886110000000031   F   F   F
  0.3999999999999986  0.6000000000000014  0.3590739999999997   F   F   F
  0.5000000000000000  0.7000000000000028  0.3590739999999997   F   F   F
  0.3999999999999986  0.7000000000000028  0.2886110000000031   F   F   F
  0.5000000000000000  0.6000000000000014  0.2886110000000031   F   F   F
  0.3999999999999986  0.7999999999999972  0.3590739999999997   F   F   F
  0.5000000000000000  0.8999999999999986  0.3590739999999997   F   F   F
  0.3999999999999986  0.8999999999999986  0.2886110000000031   F   F   F
  0.5000000000000000  0.7999999999999972  0.2886110000000031   F   F   F
  0.6000000000000014  0.0000000000000000  0.3590739999999997   F   F   F
  0.7000000000000028  0.1000000000000014  0.3590739999999997   F   F   F
  0.6000000000000014  0.1000000000000014  0.2886110000000031   F   F   F
  0.7000000000000028  0.0000000000000000  0.2886110000000031   F   F   F
  0.6000000000000014  0.2000000000000028  0.3590739999999997   F   F   F
  0.7000000000000028  0.2999999999999972  0.3590739999999997   F   F   F
  0.6000000000000014  0.2999999999999972  0.2886110000000031   F   F   F
  0.7000000000000028  0.2000000000000028  0.2886110000000031   F   F   F
  0.6000000000000014  0.3999999999999986  0.3590739999999997   F   F   F
  0.7000000000000028  0.5000000000000000  0.3590739999999997   F   F   F
  0.6000000000000014  0.5000000000000000  0.2886110000000031   F   F   F
  0.7000000000000028  0.3999999999999986  0.2886110000000031   F   F   F
  0.6000000000000014  0.6000000000000014  0.3590739999999997   F   F   F
  0.7000000000000028  0.7000000000000028  0.3590739999999997   F   F   F
  0.6000000000000014  0.7000000000000028  0.2886110000000031   F   F   F
  0.7000000000000028  0.6000000000000014  0.2886110000000031   F   F   F
  0.6000000000000014  0.7999999999999972  0.3590739999999997   F   F   F
  0.7000000000000028  0.8999999999999986  0.3590739999999997   F   F   F
  0.6000000000000014  0.8999999999999986  0.2886110000000031   F   F   F
  0.7000000000000028  0.7999999999999972  0.2886110000000031   F   F   F
  0.7999999999999972  0.0000000000000000  0.3590739999999997   F   F   F
  0.8999999999999986  0.1000000000000014  0.3590739999999997   F   F   F
  0.7999999999999972  0.1000000000000014  0.2886110000000031   F   F   F
  0.8999999999999986  0.0000000000000000  0.2886110000000031   F   F   F
  0.7999999999999972  0.2000000000000028  0.3590739999999997   F   F   F
  0.8999999999999986  0.2999999999999972  0.3590739999999997   F   F   F