Mg  O                                   
   1.0000000000000000     
    21.1388521970183838    0.0000000000000000    0.0000000000000000
     0.0000000000000000   21.1388521970183838    0.0000000000000000
     0.0000000000000000    0.0000000000000000   30.0000000000000000
   Au   Mg   O 
    20   200   200
Selective dynamics
Direct
  0.5382558122416370  0.4681123260888143  0.6223061325857557   T   T   T
  0.4070316138921868  0.4736604831398807  0.6310595700437815   T   T   T
  0.2783467215372752  0.4801186870135865  0.6220125781220247   T   T   T
  0.1549031847699851  0.4855982065051236  0.5923244121023714   T   T   T
  0.6051350072263233  0.5749299318266310  0.6149269718201680   T   T   T
  0.4776569764515912  0.5813083410148465  0.6314434980564272   T   T   T
  0.3492756589038137  0.5895534929832351  0.6274538826444385   T   T   T
  0.2321086171715976  0.5886175519825656  0.5851260402172755   T   T   T
  0.5912671757614945  0.3568682774275587  0.6086229299371837   T   T   T
  0.4646314950676356  0.3592932514155081  0.6191897793055787   T   T   T
  0.3378916864337427  0.3637225709614214  0.6207275590416756   T   T   T
  0.2127583915646269  0.3729016330431634  0.5976356037710602   T   T   T
  0.6630925312826506  0.6753985178001756  0.5784807978168445   T   T   T
  0.5467541926238795  0.6900257841700821  0.6141206903133778   T   T   T
  0.4217935363762564  0.6991167595502219  0.6232218431961698   T   T   T
  0.3125732265514998  0.6888676951304689  0.5775979832705502   T   T   T
  0.6406811810314892  0.2453618785240153  0.5897988191408388   T   T   T
  0.5173311244987673  0.2422307039423970  0.6040126347605934   T   T   T
  0.3930334125637742  0.2496492000766608  0.6012013575394946   T   T   T
  0.2654696793481932  0.2578469298384931  0.6006668144425475   T   T   T
  0.9999861439818574  0.0001728721539678  0.4305068116200133   T   T   T
  0.1000398096283774  0.1001318571427916  0.4305800956643395   T   T   T
  0.9999612124815016  0.1000122700091950  0.5010266315190037   T   T   T
  0.0998237719997022  0.0003523199641862  0.5010165972905654   T   T   T
  0.0000522215851291  0.1999591512285122  0.4305481961336497   T   T   T
  0.1002607593889593  0.2997830826045487  0.4307385601537845   T   T   T
  0.9998521912305378  0.2995906217753017  0.5011486973662613   T   T   T
  0.0998637632197799  0.1997267929789430  0.5012559232431926   T   T   T
  0.0000601048028699  0.3997616653080058  0.4306681784120912   T   T   T
  0.1000695054949219  0.4997203291712111  0.4305517485555228   T   T   T
  0.9990636249639664  0.4995736601137253  0.5012651289103687   T   T   T
  0.0995508277967261  0.3989398325361080  0.5016684318040205   T   T   T
  0.9998140845380377  0.5999476444490952  0.4306753570225368   T   T   T
  0.0996377649880742  0.7001677780251825  0.4306305528380818   T   T   T
  0.9995982589614130  0.7003841279614065  0.5011743673703037   T   T   T
  0.0983996659223223  0.6003146668445254  0.5017578039017252   T   T   T
  0.9998906156968914  0.8001553356750364  0.4305287139010119   T   T   T
  0.0998670474829808  0.9003574777582131  0.4304937734949164   T   T   T
  0.9998374709183295  0.9005016852518750  0.5009486096303206   T   T   T
  0.0992891017834339  0.8009689493428809  0.5010691249749186   T   T   T
  0.1999972482833456  0.0003120830301668  0.4304927147072917   T   T   T
  0.3001463292215476  0.1003408485234161  0.4306271954513008   T   T   T
  0.2000968208516625  0.0999000107183647  0.5011485158013116   T   T   T
  0.3000173811412523  0.0004475617991773  0.5009810834045325   T   T   T
  0.2002977617044053  0.2000495557806659  0.4305334989230900   T   T   T
  0.3004052716598551  0.2997521971840555  0.4304805633351094   T   T   T
  0.2005924944865782  0.2990300932106678  0.5020049379811837   T   T   T
  0.3004401844723148  0.2000015478256927  0.5019761984120734   T   T   T
  0.2002396109407201  0.3993319294179472  0.4304311963147356   T   T   T
  0.3003540106447176  0.4992191949801779  0.4305693631286829   T   T   T
  0.2008368226550772  0.4982368837933038  0.5023553546813631   T   T   T
  0.3010450332751091  0.3991407909629885  0.5017414775315174   T   T   T
  0.2000106946906257  0.5998948445707484  0.4301699427209797   T   T   T
  0.3000798353102141  0.7003739579952040  0.4297140184135273   T   T   T
  0.1977256923063706  0.7020282801964370  0.5014507415910856   T   T   T
  0.3022117876667281  0.5975328548543857  0.5012419938940340   T   T   T
  0.1997639104735924  0.8005508260008725  0.4305613509057338   T   T   T
  0.3000301968777421  0.9006656051649102  0.4303635933226246   T   T   T
  0.1995126734003705  0.9008818006365686  0.5009805543939834   T   T   T
  0.2999879683519424  0.8031012660772134  0.5007844139262758   T   T   T
  0.4000715419390772  0.0003394441165412  0.4305129441101627   T   T   T
  0.5000433672523812  0.1003249337627139  0.4306955166823343   T   T   T
  0.4001487910718993  0.0997870555541311  0.5011646008550130   T   T   T
  0.5000677311615291  0.0002896444529554  0.5010196428238842   T   T   T
  0.4002364209631821  0.2001714694539061  0.4306007690011668   T   T   T
  0.5001104394845797  0.2998706694716375  0.4307703401082748   T   T   T
  0.4005323177190689  0.2998659630859848  0.5023417509256447   T   T   T
  0.4999241782631998  0.1998417069836123  0.5026153014811925   T   T   T
  0.4003511491048428  0.3995212029014681  0.4307249768129964   T   T   T
  0.5001194826018533  0.4995982133382313  0.4306198913672574   T   T   T
  0.4007748868986951  0.4991478573469408  0.5016664569834006   T   T   T
  0.5002198481421871  0.3996567040364241  0.5023048449365390   T   T   T
  0.4004595724462803  0.5997454149853993  0.4305525935491801   T   T   T
  0.4998666672396652  0.6998750227991053  0.4302792499075849   T   T   T
  0.4025861640500992  0.7005196838277428  0.5016632987378671   T   T   T
  0.4999949413131120  0.5992509364957357  0.5016881011139844   T   T   T
  0.4001383673618477  0.8002500803851831  0.4305955615011143   T   T   T
  0.5000316920714454  0.9002476392571381  0.4304714864393446   T   T   T
  0.4003200238758211  0.9007700040025384  0.5009567326341582   T   T   T
  0.4999686205950624  0.8008414832519293  0.5012708114718407   T   T   T
  0.6000010266265861  0.0001423805944327  0.4304674790334246   T   T   T
  0.6999740495381062  0.0999539022802409  0.4304529327449274   T   T   T
  0.6000214447052201  0.0995124415385007  0.5009767588727314   T   T   T
  0.7001353950100295  0.0001784315960975  0.5010592672529199   T   T   T
  0.5997987149945985  0.2001258686792511  0.4304134239329329   T   T   T
  0.6997823515207813  0.2998254355242551  0.4304367478556586   T   T   T
  0.5997591815330310  0.2999475415119122  0.5028146613744298   T   T   T
  0.7006657585910503  0.1993405833223321  0.5005745471968197   T   T   T
  0.5998134581233074  0.3996149246982412  0.4307108957658272   T   T   T
  0.6997417421902838  0.4994293327195649  0.4306333135023763   T   T   T
  0.5995778298236090  0.4994541626408164  0.5019969399595183   T   T   T
  0.7001110595981572  0.3997966215098785  0.5014413178413690   T   T   T
  0.5997878488033379  0.5994847276490205  0.4305337453434390   T   T   T
  0.6998980407818181  0.6998617660194384  0.4294050008121175   T   T   T
  0.5967304225874059  0.7002043439217118  0.5012818215253603   T   T   T
  0.6999417352280517  0.5971762236721219  0.5015311178819601   T   T   T
  0.5999408729516063  0.8001892765722758  0.4307358812426827   T   T   T
  0.7000161968681553  0.9002342682698128  0.4306546049674580   T   T   T
  0.5998409249012298  0.9005756106562899  0.5010150614657150   T   T   T
  0.7000191465103782  0.8019492852657351  0.5019388104889231   T   T   T
  0.7999524566606482  0.0001342954806773  0.4305532367353351   T   T   T
  0.9000114929440031  0.1000117953283919  0.4305031537387265   T   T   T
  0.8001934871106613  0.0999021834379761  0.5009972787921697   T   T   T
  0.9000409272357786  0.0002435101520746  0.5009612570978703   T   T   T
  0.8001377361577156  0.1999604531620776  0.4304081923354346   T   T   T
  0.9000697608465842  0.2998860873647047  0.4305186081644123   T   T   T
  0.8004829834163871  0.2997521635424079  0.5010664709164345   T   T   T
  0.9000634732361945  0.1997670694037694  0.5009786901684308   T   T   T
  0.7998906940194104  0.3997510667655959  0.4306139687731587   T   T   T
  0.8998794562818944  0.4997835040017264  0.4305427772750292   T   T   T
  0.8002640046473246  0.4994000039393356  0.5011684118371136   T   T   T
  0.8999343351853213  0.3995625304236867  0.5010740344142164   T   T   T
  0.7999898088726454  0.5997894139686508  0.4308335497394253   T   T   T
  0.9000271846054986  0.7000366155834570  0.4306237480205795   T   T   T
  0.8018927223478158  0.7000074548449930  0.5019349481967623   T   T   T
  0.8999874841546216  0.5997130874787331  0.5011484345925439   T   T   T
  0.8000109007690170  0.8001043438836888  0.4309090986245394   T   T   T
  0.8999584523160920  0.9001781495380001  0.4305122003155191   T   T   T
  0.8003189348188826  0.9004592384494217  0.5010638112229913   T   T   T
  0.9002061496956628  0.8005506793530870  0.5010668940022640   T   T   T
  0.0000000000000000  0.0000000000000000  0.2886110000000031   F   F   F
  0.1000000000000014  0.1000000000000014  0.2886110000000031   F   F   F
  0.0000000000000000  0.1000000000000014  0.3590739999999997   F   F   F
  0.1000000000000014  0.0000000000000000  0.3590739999999997   F   F   F
  0.0000000000000000  0.2000000000000028  0.2886110000000031   F   F   F
  0.1000000000000014  0.2999999999999972  0.2886110000000031   F   F   F
  0.0000000000000000  0.2999999999999972  0.3590739999999997   F   F   F
  0.1000000000000014  0.2000000000000028  0.3590739999999997   F   F   F
  0.0000000000000000  0.3999999999999986  0.2886110000000031   F   F   F
  0.1000000000000014  0.5000000000000000  0.2886110000000031   F   F   F
  0.0000000000000000  0.5000000000000000  0.3590739999999997   F   F   F
  0.1000000000000014  0.3999999999999986  0.3590739999999997   F   F   F
  0.0000000000000000  0.6000000000000014  0.2886110000000031   F   F   F
  0.1000000000000014  0.7000000000000028  0.2886110000000031   F   F   F
  0.0000000000000000  0.7000000000000028  0.3590739999999997   F   F   F
  0.1000000000000014  0.6000000000000014  0.3590739999999997   F   F   F
  0.0000000000000000  0.7999999999999972  0.2886110000000031   F   F   F
  0.1000000000000014  0.8999999999999986  0.2886110000000031   F   F   F
  0.0000000000000000  0.8999999999999986  0.3590739999999997   F   F   F
  0.1000000000000014  0.7999999999999972  0.3590739999999997   F   F   F
  0.2000000000000028  0.0000000000000000  0.2886110000000031   F   F   F
  0.2999999999999972  0.1000000000000014  0.2886110000000031   F   F   F
  0.2000000000000028  0.1000000000000014  0.3590739999999997   F   F   F
  0.2999999999999972  0.0000000000000000  0.3590739999999997   F   F   F
  0.2000000000000028  0.2000000000000028  0.2886110000000031   F   F   F
  0.2999999999999972  0.2999999999999972  0.2886110000000031   F   F   F
  0.2000000000000028  0.2999999999999972  0.3590739999999997   F   F   F
  0.2999999999999972  0.2000000000000028  0.3590739999999997   F   F   F
  0.2000000000000028  0.3999999999999986  0.2886110000000031   F   F   F
  0.2999999999999972  0.5000000000000000  0.2886110000000031   F   F   F
  0.2000000000000028  0.5000000000000000  0.3590739999999997   F   F   F
  0.2999999999999972  0.3999999999999986  0.3590739999999997   F   F   F
  0.2000000000000028  0.6000000000000014  0.2886110000000031   F   F   F
  0.2999999999999972  0.7000000000000028  0.2886110000000031   F   F   F
  0.2000000000000028  0.7000000000000028  0.3590739999999997   F   F   F
  0.2999999999999972  0.6000000000000014  0.3590739999999997   F   F   F
  0.2000000000000028  0.7999999999999972  0.2886110000000031   F   F   F
  0.2999999999999972  0.8999999999999986  0.2886110000000031   F   F   F
  0.2000000000000028  0.8999999999999986  0.3590739999999997   F   F   F
  0.2999999999999972  0.7999999999999972  0.3590739999999997   F   F   F
  0.3999999999999986  0.0000000000000000  0.2886110000000031   F   F   F
  0.5000000000000000  0.1000000000000014  0.2886110000000031   F   F   F
  0.3999999999999986  0.1000000000000014  0.3590739999999997   F   F   F
  0.5000000000000000  0.0000000000000000  0.3590739999999997   F   F   F
  0.3999999999999986  0.2000000000000028  0.2886110000000031   F   F   F
  0.5000000000000000  0.2999999999999972  0.2886110000000031   F   F   F
  0.3999999999999986  0.2999999999999972  0.3590739999999997   F   F   F
  0.5000000000000000  0.2000000000000028  0.3590739999999997   F   F   F
  0.3999999999999986  0.3999999999999986  0.2886110000000031   F   F   F
  0.5000000000000000  0.5000000000000000  0.2886110000000031   F   F   F
  0.3999999999999986  0.5000000000000000  0.3590739999999997   F   F   F
  0.5000000000000000  0.3999999999999986  0.3590739999999997   F   F   F
  0.3999999999999986  0.6000000000000014  0.2886110000000031   F   F   F
  0.5000000000000000  0.7000000000000028  0.2886110000000031   F   F   F
  0.3999999999999986  0.7000000000000028  0.3590739999999997   F   F   F
  0.5000000000000000  0.6000000000000014  0.3590739999999997   F   F   F
  0.3999999999999986  0.7999999999999972  0.2886110000000031   F   F   F
  0.5000000000000000  0.8999999999999986  0.2886110000000031   F   F   F
  0.3999999999999986  0.8999999999999986  0.3590739999999997   F   F   F
  0.5000000000000000  0.7999999999999972  0.3590739999999997   F   F   F
  0.6000000000000014  0.0000000000000000  0.2886110000000031   F   F   F
  0.7000000000000028  0.1000000000000014  0.2886110000000031   F   F   F
  0.6000000000000014  0.1000000000000014  0.3590739999999997   F   F   F
  0.7000000000000028  0.0000000000000000  0.3590739999999997   F   F   F
  0.6000000000000014  0.2000000000000028  0.2886110000000031   F   F   F
  0.7000000000000028  0.2999999999999972  0.2886110000000031   F   F   F
  0.6000000000000014  0.2999999999999972  0.3590739999999997   F   F   F
  0.7000000000000028  0.2000000000000028  0.3590739999999997   F   F   F
  0.6000000000000014  0.3999999999999986  0.2886110000000031   F   F   F
  0.7000000000000028  0.5000000000000000  0.2886110000000031   F   F   F
  0.6000000000000014  0.5000000000000000  0.3590739999999997   F   F   F
  0.7000000000000028  0.3999999999999986  0.3590739999999997   F   F   F
  0.6000000000000014  0.6000000000000014  0.2886110000000031   F   F   F
  0.7000000000000028  0.7000000000000028  0.2886110000000031   F   F   F
  0.6000000000000014  0.7000000000000028  0.3590739999999997   F   F   F
  0.7000000000000028  0.6000000000000014  0.3590739999999997   F   F   F
  0.6000000000000014  0.7999999999999972  0.2886110000000031   F   F   F
  0.7000000000000028  0.8999999999999986  0.2886110000000031   F   F   F
  0.6000000000000014  0.8999999999999986  0.3590739999999997   F   F   F
  0.7000000000000028  0.7999999999999972  0.3590739999999997   F   F   F
  0.7999999999999972  0.0000000000000000  0.2886110000000031   F   F   F
  0.8999999999999986  0.1000000000000014  0.2886110000000031   F   F   F
  0.7999999999999972  0.1000000000000014  0.3590739999999997   F   F   F
  0.8999999999999986  0.0000000000000000  0.3590739999999997   F   F   F
  0.7999999999999972  0.2000000000000028  0.2886110000000031   F   F   F
  0.8999999999999986  0.2999999999999972  0.2886110000000031   F   F   F
  0.7999999999999972  0.2999999999999972  0.3590739999999997   F   F   F
  0.8999999999999986  0.2000000000000028  0.3590739999999997   F   F   F
  0.7999999999999972  0.3999999999999986  0.2886110000000031   F   F   F
  0.8999999999999986  0.5000000000000000  0.2886110000000031   F   F   F
  0.7999999999999972  0.5000000000000000  0.3590739999999997   F   F   F
  0.8999999999999986  0.3999999999999986  0.3590739999999997   F   F   F
  0.7999999999999972  0.6000000000000014  0.2886110000000031   F   F   F
  0.8999999999999986  0.7000000000000028  0.2886110000000031   F   F   F
  0.7999999999999972  0.7000000000000028  0.3590739999999997   F   F   F
  0.8999999999999986  0.6000000000000014  0.3590739999999997   F   F   F
  0.7999999999999972  0.7999999999999972  0.2886110000000031   F   F   F
  0.8999999999999986  0.8999999999999986  0.2886110000000031   F   F   F
  0.7999999999999972  0.8999999999999986  0.3590739999999997   F   F   F
  0.8999999999999986  0.7999999999999972  0.3590739999999997   F   F   F
  0.9999221788198724  0.9999972114565736  0.5024053220030567   T   T   T
  0.0998327226017892  0.0999203947131164  0.5025546273908503   T   T   T
  0.9999740183437922  0.0999760909928256  0.4302612882261414   T   T   T
  0.0999170112467596  0.9999999313844512  0.4302305194386875   T   T   T
  0.9998925181744625  0.1998385833808172  0.5025047301997816   T   T   T
  0.0997734179454639  0.2996606989154387  0.5026978282914598   T   T   T
  0.0000967881018568  0.3000168455239915  0.4303555412907940   T   T   T
  0.0999994368525563  0.1999063817572235  0.4303826122835943   T   T   T
  0.9998710852957515  0.3999192577090867  0.5025839602351283   T   T   T
  0.0991906947829904  0.5001421224532621  0.5036419201434015   T   T   T
  0.0002026321781869  0.5001521469928250  0.4304985764115870   T   T   T
  0.0999604792152056  0.4002675619747791  0.4305762369166075   T   T   T
  0.9996872935596315  0.6000665287528832  0.5026855600916633   T   T   T
  0.0993457100816073  0.7003897684192211  0.5026177320335421   T   T   T
  0.9999934795277312  0.6999383335266742  0.4303580757685026   T   T   T
  0.1003475138580896  0.5999480526565648  0.4309120859217686   T   T   T
  0.9997998016044178  0.8002327884172900  0.5025002928394215   T   T   T
  0.0996829933270789  0.9002630205316748  0.5024473659731825   T   T   T
  0.9999521537552383  0.8999555292547683  0.4302231581246048   T   T   T
  0.0999220933337170  0.7999792172166167  0.4303043585340518   T   T   T
  0.1997404393128122  0.0000558250553979  0.5024609368335788   T   T   T
  0.2999382408097730  0.0996889349867871  0.5024932842829344   T   T   T
  0.1998667718838902  0.0999919162522858  0.4303349918692376   T   T   T
  0.2999044102550599  0.0000836089093710  0.4301856838603868   T   T   T
  0.1998409892092923  0.1994791587687672  0.5028404428964777   T   T   T
  0.3004181642052117  0.2999596411301368  0.5006105157888072   T   T   T
  0.1997341642059141  0.2997374891501039  0.4302873331062571   T   T   T
  0.2999236059873240  0.1996925693674925  0.4302835098524938   T   T   T
  0.1997311403064899  0.3990958252883487  0.5015367102025010   T   T   T
  0.3002497828318056  0.4994114845349529  0.5013532907707301   T   T   T
  0.1996433810815859  0.5005286534932480  0.4310003215356843   T   T   T
  0.2998190657320166  0.4000219649631092  0.4300549983874475   T   T   T
  0.1990931539672971  0.6013831150520801  0.5045128697387540   T   T   T
  0.2986340667108820  0.7026519038486825  0.5027410177873861   T   T   T
  0.2001087914065920  0.6998166140955675  0.4308433278258548   T   T   T
  0.2993129321358481  0.6006980554822334  0.4309422478725295   T   T   T
  0.1996052626066387  0.8007427076277409  0.5024481500520324   T   T   T
  0.2998426073965987  0.9008289811590799  0.5023034386416683   T   T   T
  0.1998745300477438  0.9001084303408291  0.4302450603828731   T   T   T
  0.2997111537861414  0.8000051018996857  0.4303719976190976   T   T   T
  0.4000737792939830  0.9999492018045899  0.5023897015930672   T   T   T
  0.5001639340722974  0.0995275303630905  0.5024104323546439   T   T   T
  0.4000169474637545  0.0998448650879311  0.4302478359034012   T   T   T
  0.5000968427391967  0.9998887272941062  0.4302200992178413   T   T   T
  0.4000050174302032  0.1991308927052557  0.5020505130204000   T   T   T
  0.5002342453718427  0.2999700316023777  0.5012865167559681   T   T   T
  0.4001764626624578  0.2998322659981767  0.4301351198037295   T   T   T
  0.5001700756604137  0.1997122393838424  0.4303822591547117   T   T   T
  0.4002449200921916  0.3999754600545842  0.5019859621644400   T   T   T
  0.4999656873703699  0.4999667652925268  0.5019734859768050   T   T   T
  0.3999423883471351  0.5001115674712011  0.4301474075396570   T   T   T
  0.5001998464736488  0.4000529183252155  0.4302778363343123   T   T   T
  0.4001965072878519  0.6002930649517992  0.5013905305946196   T   T   T
  0.4997262803213474  0.7004091070187570  0.5012384063313391   T   T   T
  0.3993098290385646  0.7002413136611523  0.4304450399642263   T   T   T
  0.4999834914894805  0.6002583013635885  0.4299756901471383   T   T   T
  0.3997642409414723  0.8005663954134263  0.5021316418074875   T   T   T
  0.5000976093882983  0.9001773739677432  0.5023732146989346   T   T   T
  0.3999342765634211  0.9000470064600350  0.4302241041250312   T   T   T
  0.5000618085559196  0.8000056044439390  0.4302112940442058   T   T   T
  0.6001868818294440  0.9998259153179987  0.5023971107251768   T   T   T
  0.7003804732583987  0.0995970348679833  0.5023714712791900   T   T   T
  0.6002186828791807  0.0997134113064746  0.4301749435856053   T   T   T
  0.7001216732571862  0.9998622819377587  0.4302485975844235   T   T   T
  0.6006060932948074  0.1986627486450203  0.5015458473843353   T   T   T
  0.7010948698149946  0.2996583779335111  0.5025226377716692   T   T   T
  0.6004465168815045  0.2998026362237667  0.4304615593523593   T   T   T
  0.7002979945809429  0.1998463931771397  0.4301475654279159   T   T   T
  0.6005898230968967  0.4000660379178385  0.5020489826119601   T   T   T
  0.7003982173380479  0.4994225093274522  0.5023249237681995   T   T   T
  0.6003078741243186  0.4998436420813022  0.4301352047488436   T   T   T
  0.7002749696514314  0.3997332002011476  0.4303238230579822   T   T   T
  0.5998546934927447  0.5996062732216814  0.5004396691279283   T   T   T
  0.7016361196449949  0.7007095525838807  0.5082169345068621   T   T   T
  0.6009554530480870  0.7002287363209092  0.4307130127208723   T   T   T
  0.7003264671998579  0.6008225631635824  0.4307929085977875   T   T   T
  0.6002151121180788  0.8003195688827986  0.5022547713259087   T   T   T
  0.7001759275083259  0.9002946461214734  0.5025829498555581   T   T   T
  0.6002184244621276  0.8999052575464432  0.4302466728744818   T   T   T
  0.7001288579621061  0.7991232199149110  0.4310340667190431   T   T   T
  0.8001791837321051  0.9999499696049341  0.5024409577209781   T   T   T
  0.9001008331230409  0.0998374558783155  0.5024515297027961   T   T   T
  0.8001123118580935  0.0998747647215197  0.4301935848695422   T   T   T
  0.9000108444088397  0.9999399007278953  0.4302217840179665   T   T   T
  0.8004236618159482  0.1996773663537397  0.5023454025534164   T   T   T
  0.9001477394578359  0.2998135272750062  0.5024763720529322   T   T   T
  0.8001487025783405  0.2999187092179127  0.4302673799796679   T   T   T
  0.9001146572259913  0.1999509721760049  0.4302215423592415   T   T   T
  0.8003207356318640  0.3998381697351263  0.5025425663612211   T   T   T
  0.8999813030186985  0.4999738460296683  0.5024923052488361   T   T   T
  0.8000516918476350  0.5000397332504178  0.4303312716258958   T   T   T
  0.9001203588876621  0.4000012137121942  0.4303078763580714   T   T   T
  0.8001599652777145  0.6000366826486356  0.5026183912955346   T   T   T
  0.9002744927819393  0.7000851186801142  0.5026579154357194   T   T   T
  0.7992349065041537  0.7000349089271083  0.4310245468247373   T   T   T
  0.8999609085559257  0.6001428771181168  0.4303556559332407   T   T   T
  0.8001595426589461  0.8001236460986050  0.5027675431798286   T   T   T
  0.9000370460419731  0.9001040025495186  0.5023756639545880   T   T   T
  0.7999221879260219  0.8997928045573858  0.4303573436851948   T   T   T
  0.8998906756733120  0.7998516784901568  0.4303411255925198   T   T   T
  0.0000000000000000  0.0000000000000000  0.3590739999999997   F   F   F
  0.1000000000000014  0.1000000000000014  0.3590739999999997   F   F   F
  0.0000000000000000  0.1000000000000014  0.2886110000000031   F   F   F
  0.1000000000000014  0.0000000000000000  0.2886110000000031   F   F   F
  0.0000000000000000  0.2000000000000028  0.3590739999999997   F   F   F
  0.1000000000000014  0.2999999999999972  0.3590739999999997   F   F   F
  0.0000000000000000  0.2999999999999972  0.2886110000000031   F   F   F
  0.1000000000000014  0.2000000000000028  0.2886110000000031   F   F   F
  0.0000000000000000  0.3999999999999986  0.3590739999999997   F   F   F
  0.1000000000000014  0.5000000000000000  0.3590739999999997   F   F   F
  0.0000000000000000  0.5000000000000000  0.2886110000000031   F   F   F
  0.1000000000000014  0.3999999999999986  0.2886110000000031   F   F   F
  0.0000000000000000  0.6000000000000014  0.3590739999999997   F   F   F
  0.1000000000000014  0.7000000000000028  0.3590739999999997   F   F   F
  0.0000000000000000  0.7000000000000028  0.2886110000000031   F   F   F
  0.1000000000000014  0.6000000000000014  0.2886110000000031   F   F   F
  0.0000000000000000  0.7999999999999972  0.3590739999999997   F   F   F
  0.1000000000000014  0.8999999999999986  0.3590739999999997   F   F   F
  0.0000000000000000  0.8999999999999986  0.2886110000000031   F   F   F
  0.1000000000000014  0.7999999999999972  0.2886110000000031   F   F   F
  0.2000000000000028  0.0000000000000000  0.3590739999999997   F   F   F
  0.2999999999999972  0.1000000000000014  0.3590739999999997   F   F   F
  0.2000000000000028  0.1000000000000014  0.2886110000000031   F   F   F
  0.2999999999999972  0.0000000000000000  0.2886110000000031   F   F   F
  0.2000000000000028  0.2000000000000028  0.3590739999999997   F   F   F
  0.2999999999999972  0.2999999999999972  0.3590739999999997   F   F   F
  0.2000000000000028  0.2999999999999972  0.2886110000000031   F   F   F
  0.2999999999999972  0.2000000000000028  0.2886110000000031   F   F   F
  0.2000000000000028  0.3999999999999986  0.3590739999999997   F   F   F
  0.2999999999999972  0.5000000000000000  0.3590739999999997   F   F   F
  0.2000000000000028  0.5000000000000000  0.2886110000000031   F   F   F
  0.2999999999999972  0.3999999999999986  0.2886110000000031   F   F   F
  0.2000000000000028  0.6000000000000014  0.3590739999999997   F   F   F
  0.2999999999999972  0.7000000000000028  0.3590739999999997   F   F   F
  0.2000000000000028  0.7000000000000028  0.2886110000000031   F   F   F
  0.2999999999999972  0.6000000000000014  0.2886110000000031   F   F   F
  0.2000000000000028  0.7999999999999972  0.3590739999999997   F   F   F
  0.2999999999999972  0.8999999999999986  0.3590739999999997   F   F   F
  0.2000000000000028  0.8999999999999986  0.2886110000000031   F   F   F
  0.2999999999999972  0.7999999999999972  0.2886110000000031   F   F   F
  0.3999999999999986  0.0000000000000000  0.3590739999999997   F   F   F
  0.5000000000000000  0.1000000000000014  0.3590739999999997   F   F   F
  0.3999999999999986  0.1000000000000014  0.2886110000000031   F   F   F
  0.5000000000000000  0.0000000000000000  0.2886110000000031   F   F   F
  0.3999999999999986  0.2000000000000028  0.3590739999999997   F   F   F
  0.5000000000000000  0.2999999999999972  0.3590739999999997   F   F   F
  0.3999999999999986  0.2999999999999972  0.2886110000000031   F   F   F
  0.5000000000000000  0.2000000000000028  0.2886110000000031   F   F   F
  0.3999999999999986  0.3999999999999986  0.3590739999999997   F   F   F
  0.5000000000000000  0.5000000000000000  0.3590739999999997   F   F   F
  0.3999999999999986  0.5000000000000000  0.2886110000000031   F   F   F
  0.5000000000000000  0.3999999999999986  0.2886110000000031   F   F   F
  0.3999999999999986  0.6000000000000014  0.3590739999999997   F   F   F
  0.5000000000000000  0.7000000000000028  0.3590739999999997   F   F   F
  0.3999999999999986  0.7000000000000028  0.2886110000000031   F   F   F
  0.5000000000000000  0.6000000000000014  0.2886110000000031   F   F   F
  0.3999999999999986  0.7999999999999972  0.3590739999999997   F   F   F
  0.5000000000000000  0.8999999999999986  0.3590739999999997   F   F   F
  0.3999999999999986  0.8999999999999986  0.2886110000000031   F   F   F
  0.5000000000000000  0.7999999999999972  0.2886110000000031   F   F   F
  0.6000000000000014  0.0000000000000000  0.3590739999999997   F   F   F
  0.7000000000000028  0.1000000000000014  0.3590739999999997   F   F   F
  0.6000000000000014  0.1000000000000014  0.2886110000000031   F   F   F
  0.7000000000000028  0.0000000000000000  0.2886110000000031   F   F   F
  0.6000000000000014  0.2000000000000028  0.3590739999999997   F   F   F
  0.7000000000000028  0.2999999999999972  0.3590739999999997   F   F   F
  0.6000000000000014  0.2999999999999972  0.2886110000000031   F   F   F
  0.7000000000000028  0.2000000000000028  0.2886110000000031   F   F   F
  0.6000000000000014  0.3999999999999986  0.3590739999999997   F   F   F
  0.7000000000000028  0.5000000000000000  0.3590739999999997   F   F   F
  0.6000000000000014  0.5000000000000000  0.2886110000000031   F   F   F
  0.7000000000000028  0.3999999999999986  0.2886110000000031   F   F   F
  0.6000000000000014  0.6000000000000014  0.3590739999999997   F   F   F
  0.7000000000000028  0.7000000000000028  0.3590739999999997   F   F   F
  0.6000000000000014  0.7000000000000028  0.2886110000000031   F   F   F
  0.7000000000000028  0.6000000000000014  0.2886110000000031   F   F   F
  0.6000000000000014  0.7999999999999972  0.3590739999999997   F   F   F
  0.7000000000000028  0.8999999999999986  0.3590739999999997   F   F   F
  0.6000000000000014  0.8999999999999986  0.2886110000000031   F   F   F
  0.7000000000000028  0.7999999999999972  0.2886110000000031   F   F   F
  0.7999999999999972  0.0000000000000000  0.3590739999999997   F   F   F
  0.8999999999999986  0.1000000000000014  0.3590739999999997   F   F   F
  0.7999999999999972  0.1000000000000014  0.2886110000000031   F   F   F
  0.8999999999999986  0.0000000000000000  0.2886110000000031   F   F   F
  0.7999999999999972  0.2000000000000028  0.3590739999999997   F   F   F
  0.8999999999999986  0.2999999999999972  0.3590739999999997   F   F   F