cu4                                     
   1.0000000000000000     
    20.0000000000000000    0.0000000000000000    0.0000000000000000
     0.0000000000000000   20.0000000000000000    0.0000000000000000
     0.0000000000000000    0.0000000000000000   20.0000000000000000
   Cu
     4
Direct
  0.9756196806658382  0.0947794890420870 -0.0002637288949138
  0.9638888328090335  0.8756879630466893  0.9583329298046126
  0.9935905344757970  0.9779118887773677  0.9925961017417815
  0.0669009520493313  0.0516206591338563  0.0493346973485195

  0.00000000E+00  0.00000000E+00  0.00000000E+00
  0.00000000E+00  0.00000000E+00  0.00000000E+00
  0.00000000E+00  0.00000000E+00  0.00000000E+00
  0.00000000E+00  0.00000000E+00  0.00000000E+00
