Cu Mg  O                                
   1.00000000000000     
    21.1388521970183838    0.0000000000000000    0.0000000000000000
     0.0000000000000000   21.1388521970183838    0.0000000000000000
     0.0000000000000000    0.0000000000000000   22.1138852197018352
   Cu
     4
Selective dynamics
Direct
  0.3983292412859853  0.6017183953280920  0.5977374706897507   T   T   T
  0.3206172401350429  0.6794288505565831  0.5992241530213533   T   T   T
  0.5794283774940112  0.4206177131976219  0.5992241530213533   T   T   T
  0.5017179222655201  0.4983292412859868  0.5977374706897507   T   T   T
 
  0.00000000E+00  0.00000000E+00  0.00000000E+00
  0.00000000E+00  0.00000000E+00  0.00000000E+00
  0.00000000E+00  0.00000000E+00  0.00000000E+00
  0.00000000E+00  0.00000000E+00  0.00000000E+00
