Au                                      
   1.00000000000000     
    21.1388521970183838    0.0000000000000000    0.0000000000000000
     0.0000000000000000   21.1388521970183838    0.0000000000000000
     0.0000000000000000    0.0000000000000000   22.1138852197018352
   Au
     2
Direct
  0.5428158105162240  0.5571841536227282  0.6209096357703672
  0.4571841893898068  0.6428157747491454  0.6209096357703672
 
  0.00000000E+00  0.00000000E+00  0.00000000E+00
  0.00000000E+00  0.00000000E+00  0.00000000E+00
