Mg  O                                   
   1.00000000000000     
    21.1388521970183838    0.0000000000000000    0.0000000000000000
     0.0000000000000000   21.1388521970183838    0.0000000000000000
     0.0000000000000000    0.0000000000000000   30.0000000000000000
   Au   Mg   O 
    20   200   200
Selective dynamics
Direct
  0.4973078607740812  0.4329002225541924  0.6109144565759258   T   T   T
  0.3273808036869225  0.3142112141931291  0.5761787778171530   T   T   T
  0.5568838102438223  0.5433726471840686  0.5910936214300458   T   T   T
  0.5668168011062440  0.3236774098119714  0.6189181188807782   T   T   T
  0.4492004299875598  0.0971527951457616  0.6012907676800581   T   T   T
  0.6362341546222481  0.2143230178617199  0.6162794714222354   T   T   T
  0.5093239465525080  0.2105054950261841  0.6238029881865935   T   T   T
  0.4286388256952189  0.5405491464011983  0.5905159507096023   T   T   T
  0.6839691606935479  0.5473538478767686  0.5942848589694757   T   T   T
  0.5736804895088282  0.1005645116669620  0.6085345801897163   T   T   T
  0.3704479170432427  0.4302325616068349  0.6049237504621913   T   T   T
  0.8173163350116427  0.3350557643177903  0.5905564636617395   T   T   T
  0.4390288606561941  0.3195664796733957  0.6188311350000570   T   T   T
  0.2521026910599216  0.4161251533509420  0.5790865257953088   T   T   T
  0.6934456646545364  0.3278681408708781  0.6087674836541980   T   T   T
  0.6856760243219527  0.1138741249521530  0.5724958043551205   T   T   T
  0.6248609669843757  0.4351249111247189  0.6063546481713686   T   T   T
  0.7544486010499487  0.4436032580731291  0.5948282011155008   T   T   T
  0.4044862321447373  0.2109392456225914  0.5746741609765137   T   T   T
  0.7575503855688162  0.2212257774934263  0.5831332101509155   T   T   T
  0.0000219524759410  0.9999619172710527  0.4287067439308168   T   T   T
  0.0999739482330662  0.0999514715595614  0.4286978160146158   T   T   T
  0.0000898902958035  0.0999291478431162  0.4975973332547976   T   T   T
  0.0999677532509280  0.9999308532562041  0.4975873023666724   T   T   T
  0.0000132461238760  0.2000030112205707  0.4287215039969720   T   T   T
  0.0999357955366422  0.3000011289364722  0.4287562012470026   T   T   T
  0.0000624813947259  0.3000410772098440  0.4976948073482694   T   T   T
  0.0998436163184295  0.1998585977529928  0.4976285814513414   T   T   T
  0.9998917450455974  0.4000416688803530  0.4287197069046393   T   T   T
  0.0999540961402632  0.5000653064974817  0.4287234262271831   T   T   T
  0.9999122284604575  0.5000861807757643  0.4976315981860532   T   T   T
  0.0992330162872920  0.4002102845462739  0.4978156653268198   T   T   T
  0.9999655751918924  0.6000176303309688  0.4287279465204700   T   T   T
  0.0999965108346708  0.7000185370112614  0.4287208238995466   T   T   T
  0.9999920161179382  0.7000056472503363  0.4975923001175802   T   T   T
  0.0999527311068873  0.6000791036742914  0.4976074958201524   T   T   T
 -0.0000007040053990  0.7999823140117767  0.4287185865266042   T   T   T
  0.0999996771298606  0.8999731369144388  0.4287145410048899   T   T   T
  0.0000212800720640  0.8999573552330676  0.4975874481657405   T   T   T
  0.0999988229216869  0.7999931077815871  0.4975884663099288   T   T   T
  0.1999815374285058  0.9999302809354524  0.4287049244868190   T   T   T
  0.3000763934294756  0.0997794613308954  0.4287062669462477   T   T   T
  0.1995978345825373  0.0995336102179048  0.4976244603804407   T   T   T
  0.2998010800442849  0.9997453109584001  0.4976595907804771   T   T   T
  0.1998197604439459  0.1999608582727846  0.4286816333583344   T   T   T
  0.3000041361967632  0.2999577310680168  0.4285664484895709   T   T   T
  0.1985382841085112  0.2996069580456883  0.4987264296028918   T   T   T
  0.2971706309111442  0.1973945303074611  0.4976379690644067   T   T   T
  0.2000174717028690  0.4000540504412954  0.4285284807776818   T   T   T
  0.3002009027547162  0.5003147266576019  0.4285910443657949   T   T   T
  0.1998678212551615  0.5008281872874063  0.4976676876013441   T   T   T
  0.3027969619887770  0.4028599381881922  0.4975403542537185   T   T   T
  0.2000117249273679  0.6001028356768631  0.4287139183119101   T   T   T
  0.3000192904029623  0.7000054826695797  0.4287242873695850   T   T   T
  0.1999990314130124  0.7000332879102615  0.4975979528363758   T   T   T
  0.2999681294796727  0.6001228173490779  0.4976812871468075   T   T   T
  0.2000001099957616  0.7999894563364239  0.4287176651686783   T   T   T
  0.2999987742133212  0.8999516595399921  0.4287220030335833   T   T   T
  0.1999792433209633  0.8999562251549458  0.4975892820135224   T   T   T
  0.2999861341249378  0.7999872734730820  0.4975949517296184   T   T   T
  0.4000836299546692  0.9999233541657010  0.4287469086637284   T   T   T
  0.4998868173843651  0.0999593221648844  0.4288118871096663   T   T   T
  0.4001195479053585  0.0971150537447240  0.4993120009735784   T   T   T
  0.5000569837025777  0.9994497781576178  0.4988809273177854   T   T   T
  0.4000672402309816  0.1998294772485722  0.4284334078573777   T   T   T
  0.5004188931509609  0.3000806753971804  0.4287902659824948   T   T   T
  0.4030456628987092  0.3028004070932264  0.4976335264331697   T   T   T
  0.5030383003817009  0.1999289592150968  0.4991109884331226   T   T   T
  0.4005211295270183  0.4004547847578188  0.4285650305717688   T   T   T
  0.5001132695188039  0.5000338830071706  0.4288290137515022   T   T   T
  0.4004371593200032  0.5001910992541282  0.4994662418410558   T   T   T
  0.5006686202757406  0.4004753956066923  0.4992115117669851   T   T   T
  0.4001593496751400  0.5999103055015359  0.4287494240795528   T   T   T
  0.5000170280024528  0.6998669191447929  0.4288063799630599   T   T   T
  0.4000227436929598  0.7001387649759516  0.4976777762545299   T   T   T
  0.5000432759217504  0.6000102937606521  0.4991524591763932   T   T   T
  0.4000098518130289  0.7999739986454778  0.4287287329996034   T   T   T
  0.4999937813915210  0.9000278531073591  0.4287664476265324   T   T   T
  0.3999679896899522  0.8998624169341545  0.4976437786540872   T   T   T
  0.5000007718385779  0.7999567420573092  0.4976422269745904   T   T   T
  0.5998966482798475  0.0000485818295186  0.4288155444944965   T   T   T
  0.6999600420582485  0.0999381532623461  0.4284246986184019   T   T   T
  0.5969716088557494  0.0996006037769097  0.4993602986779384   T   T   T
  0.7000939328178762  0.9971836548057353  0.4976604593489786   T   T   T
  0.6000036893425991  0.2000639973467495  0.4287954692156098   T   T   T
  0.6999053663311657  0.3004657835391689  0.4287034969731681   T   T   T
  0.6000859499452034  0.3005371401670398  0.4992271193784222   T   T   T
  0.6993846810601088  0.2030665186376472  0.4976616995038220   T   T   T
  0.6000693608686860  0.4000976018683590  0.4289032089680325   T   T   T
  0.6999744623582304  0.4999920571673820  0.4288061952994598   T   T   T
  0.6001059127713338  0.4998800673096143  0.4993064020133348   T   T   T
  0.6999012789363669  0.4002376994777846  0.4992189053934433   T   T   T
  0.6000020944797865  0.5998473674329721  0.4288137300160428   T   T   T
  0.6999869713213973  0.6998430329538452  0.4287954349722859   T   T   T
  0.5999899977241634  0.7000886059512555  0.4976919565599230   T   T   T
  0.7001308775876337  0.5999847250398815  0.4991185849457681   T   T   T
  0.5999901603612300  0.7999389919469589  0.4287318002643493   T   T   T
  0.6999945405447033  0.8998009139737406  0.4286090407518808   T   T   T
  0.5998785097979513  0.8998098477392588  0.4976380719480069   T   T   T
  0.7000033468726433  0.7998993183794683  0.4976156728462930   T   T   T
  0.8000454777721956  0.9998981118279919  0.4287196120934266   T   T   T
  0.9001676003490522  0.0999804680908932  0.4286315258160422   T   T   T
  0.8027954813391659  0.0993323518147725  0.4977121550487487   T   T   T
  0.9001948998162103  0.9997410992969359  0.4975995638964257   T   T   T
  0.8000317737495533  0.2001368791256959  0.4285630185256705   T   T   T
  0.8998772510962271  0.3000846143702380  0.4287198558012584   T   T   T
  0.7999103507294654  0.3009945977409688  0.4989625304077039   T   T   T
  0.9007072464664083  0.2000851372589808  0.4979666104533384   T   T   T
  0.7998322199005491  0.4001940640547525  0.4287140504226253   T   T   T
  0.8998184048765511  0.5000323382675343  0.4287981100766501   T   T   T
  0.7999495312161473  0.5001548711204890  0.4991592867315420   T   T   T
  0.9000062879436039  0.4002478811449195  0.4977056578266727   T   T   T
  0.7998594586763095  0.5998630168272179  0.4288393372281495   T   T   T
  0.8999784380435984  0.6999743826108996  0.4287335461228968   T   T   T
  0.8000002926121879  0.6999769856735361  0.4976525763291152   T   T   T
  0.8999835113806035  0.5999982120905027  0.4976586195985063   T   T   T
  0.7999991550760922  0.7999347790271278  0.4287231341524862   T   T   T
  0.9000202829757229  0.8999453224853882  0.4287056678250983   T   T   T
  0.8001970532785638  0.8998035097691337  0.4975905974913319   T   T   T
  0.9000195825682857  0.7999583860661205  0.4975903435603486   T   T   T
  0.0000000000000000  0.0000000000000000  0.2886110000000031   F   F   F
  0.1000000000000014  0.1000000000000014  0.2886110000000031   F   F   F
  0.0000000000000000  0.1000000000000014  0.3590739999999997   F   F   F
  0.1000000000000014  0.0000000000000000  0.3590739999999997   F   F   F
  0.0000000000000000  0.2000000000000028  0.2886110000000031   F   F   F
  0.1000000000000014  0.2999999999999972  0.2886110000000031   F   F   F
  0.0000000000000000  0.2999999999999972  0.3590739999999997   F   F   F
  0.1000000000000014  0.2000000000000028  0.3590739999999997   F   F   F
  0.0000000000000000  0.3999999999999986  0.2886110000000031   F   F   F
  0.1000000000000014  0.5000000000000000  0.2886110000000031   F   F   F
  0.0000000000000000  0.5000000000000000  0.3590739999999997   F   F   F
  0.1000000000000014  0.3999999999999986  0.3590739999999997   F   F   F
  0.0000000000000000  0.6000000000000014  0.2886110000000031   F   F   F
  0.1000000000000014  0.7000000000000028  0.2886110000000031   F   F   F
  0.0000000000000000  0.7000000000000028  0.3590739999999997   F   F   F
  0.1000000000000014  0.6000000000000014  0.3590739999999997   F   F   F
  0.0000000000000000  0.7999999999999972  0.2886110000000031   F   F   F
  0.1000000000000014  0.8999999999999986  0.2886110000000031   F   F   F
  0.0000000000000000  0.8999999999999986  0.3590739999999997   F   F   F
  0.1000000000000014  0.7999999999999972  0.3590739999999997   F   F   F
  0.2000000000000028  0.0000000000000000  0.2886110000000031   F   F   F
  0.2999999999999972  0.1000000000000014  0.2886110000000031   F   F   F
  0.2000000000000028  0.1000000000000014  0.3590739999999997   F   F   F
  0.2999999999999972  0.0000000000000000  0.3590739999999997   F   F   F
  0.2000000000000028  0.2000000000000028  0.2886110000000031   F   F   F
  0.2999999999999972  0.2999999999999972  0.2886110000000031   F   F   F
  0.2000000000000028  0.2999999999999972  0.3590739999999997   F   F   F
  0.2999999999999972  0.2000000000000028  0.3590739999999997   F   F   F
  0.2000000000000028  0.3999999999999986  0.2886110000000031   F   F   F
  0.2999999999999972  0.5000000000000000  0.2886110000000031   F   F   F
  0.2000000000000028  0.5000000000000000  0.3590739999999997   F   F   F
  0.2999999999999972  0.3999999999999986  0.3590739999999997   F   F   F
  0.2000000000000028  0.6000000000000014  0.2886110000000031   F   F   F
  0.2999999999999972  0.7000000000000028  0.2886110000000031   F   F   F
  0.2000000000000028  0.7000000000000028  0.3590739999999997   F   F   F
  0.2999999999999972  0.6000000000000014  0.3590739999999997   F   F   F
  0.2000000000000028  0.7999999999999972  0.2886110000000031   F   F   F
  0.2999999999999972  0.8999999999999986  0.2886110000000031   F   F   F
  0.2000000000000028  0.8999999999999986  0.3590739999999997   F   F   F
  0.2999999999999972  0.7999999999999972  0.3590739999999997   F   F   F
  0.3999999999999986  0.0000000000000000  0.2886110000000031   F   F   F
  0.5000000000000000  0.1000000000000014  0.2886110000000031   F   F   F
  0.3999999999999986  0.1000000000000014  0.3590739999999997   F   F   F
  0.5000000000000000  0.0000000000000000  0.3590739999999997   F   F   F
  0.3999999999999986  0.2000000000000028  0.2886110000000031   F   F   F
  0.5000000000000000  0.2999999999999972  0.2886110000000031   F   F   F
  0.3999999999999986  0.2999999999999972  0.3590739999999997   F   F   F
  0.5000000000000000  0.2000000000000028  0.3590739999999997   F   F   F
  0.3999999999999986  0.3999999999999986  0.2886110000000031   F   F   F
  0.5000000000000000  0.5000000000000000  0.2886110000000031   F   F   F
  0.3999999999999986  0.5000000000000000  0.3590739999999997   F   F   F
  0.5000000000000000  0.3999999999999986  0.3590739999999997   F   F   F
  0.3999999999999986  0.6000000000000014  0.2886110000000031   F   F   F
  0.5000000000000000  0.7000000000000028  0.2886110000000031   F   F   F
  0.3999999999999986  0.7000000000000028  0.3590739999999997   F   F   F
  0.5000000000000000  0.6000000000000014  0.3590739999999997   F   F   F
  0.3999999999999986  0.7999999999999972  0.2886110000000031   F   F   F
  0.5000000000000000  0.8999999999999986  0.2886110000000031   F   F   F
  0.3999999999999986  0.8999999999999986  0.3590739999999997   F   F   F
  0.5000000000000000  0.7999999999999972  0.3590739999999997   F   F   F
  0.6000000000000014  0.0000000000000000  0.2886110000000031   F   F   F
  0.7000000000000028  0.1000000000000014  0.2886110000000031   F   F   F
  0.6000000000000014  0.1000000000000014  0.3590739999999997   F   F   F
  0.7000000000000028  0.0000000000000000  0.3590739999999997   F   F   F
  0.6000000000000014  0.2000000000000028  0.2886110000000031   F   F   F
  0.7000000000000028  0.2999999999999972  0.2886110000000031   F   F   F
  0.6000000000000014  0.2999999999999972  0.3590739999999997   F   F   F
  0.7000000000000028  0.2000000000000028  0.3590739999999997   F   F   F
  0.6000000000000014  0.3999999999999986  0.2886110000000031   F   F   F
  0.7000000000000028  0.5000000000000000  0.2886110000000031   F   F   F
  0.6000000000000014  0.5000000000000000  0.3590739999999997   F   F   F
  0.7000000000000028  0.3999999999999986  0.3590739999999997   F   F   F
  0.6000000000000014  0.6000000000000014  0.2886110000000031   F   F   F
  0.7000000000000028  0.7000000000000028  0.2886110000000031   F   F   F
  0.6000000000000014  0.7000000000000028  0.3590739999999997   F   F   F
  0.7000000000000028  0.6000000000000014  0.3590739999999997   F   F   F
  0.6000000000000014  0.7999999999999972  0.2886110000000031   F   F   F
  0.7000000000000028  0.8999999999999986  0.2886110000000031   F   F   F
  0.6000000000000014  0.8999999999999986  0.3590739999999997   F   F   F
  0.7000000000000028  0.7999999999999972  0.3590739999999997   F   F   F
  0.7999999999999972  0.0000000000000000  0.2886110000000031   F   F   F
  0.8999999999999986  0.1000000000000014  0.2886110000000031   F   F   F
  0.7999999999999972  0.1000000000000014  0.3590739999999997   F   F   F
  0.8999999999999986  0.0000000000000000  0.3590739999999997   F   F   F
  0.7999999999999972  0.2000000000000028  0.2886110000000031   F   F   F
  0.8999999999999986  0.2999999999999972  0.2886110000000031   F   F   F
  0.7999999999999972  0.2999999999999972  0.3590739999999997   F   F   F
  0.8999999999999986  0.2000000000000028  0.3590739999999997   F   F   F
  0.7999999999999972  0.3999999999999986  0.2886110000000031   F   F   F
  0.8999999999999986  0.5000000000000000  0.2886110000000031   F   F   F
  0.7999999999999972  0.5000000000000000  0.3590739999999997   F   F   F
  0.8999999999999986  0.3999999999999986  0.3590739999999997   F   F   F
  0.7999999999999972  0.6000000000000014  0.2886110000000031   F   F   F
  0.8999999999999986  0.7000000000000028  0.2886110000000031   F   F   F
  0.7999999999999972  0.7000000000000028  0.3590739999999997   F   F   F
  0.8999999999999986  0.6000000000000014  0.3590739999999997   F   F   F
  0.7999999999999972  0.7999999999999972  0.2886110000000031   F   F   F
  0.8999999999999986  0.8999999999999986  0.2886110000000031   F   F   F
  0.7999999999999972  0.8999999999999986  0.3590739999999997   F   F   F
  0.8999999999999986  0.7999999999999972  0.3590739999999997   F   F   F
  0.0000068055784420  0.0002007785229454  0.4989044915164846   T   T   T
  0.0999728816074747  0.1001141847617427  0.4988759151526009   T   T   T
  0.0000010335836140  0.1001885557586188  0.4284672590629308   T   T   T
  0.1000173653095316  0.0001958735217332  0.4284618964279625   T   T   T
  0.0001727082741008  0.2000328590771699  0.4989671221249957   T   T   T
  0.1001093928444063  0.2999761201295813  0.4991697046106845   T   T   T
  0.0000682631356641  0.2998472259788103  0.4285985167006636   T   T   T
  0.1001722361287229  0.2001860358357164  0.4285132238681211   T   T   T
  0.0002246524134059  0.3997211382353015  0.4989158934100571   T   T   T
  0.1001463667031305  0.4997443809057959  0.4989580597963199   T   T   T
  0.0002392973790282  0.4997721713630511  0.4284875286314914   T   T   T
  0.1005767946594739  0.3997103425034969  0.4287436377923382   T   T   T
  0.0002606190091663  0.5999568102329772  0.4988921552223644   T   T   T
  0.1000538826308237  0.7000316970382791  0.4989071625249769   T   T   T
  0.0001126831625426  0.7000319303978881  0.4284624586583287   T   T   T
  0.1001240177836107  0.5998273674580836  0.4284698652093874   T   T   T
  0.0000988717701988  0.8001548360017497  0.4989149019844200   T   T   T
  0.0999905670405053  0.9001988769059573  0.4989193010494712   T   T   T
  0.0000079355024392  0.9001765357939779  0.4284631208228515   T   T   T
  0.1000106052119845  0.8001038119047292  0.4284657036186092   T   T   T
  0.1998717595512774  0.0001493810984954  0.4988865526667926   T   T   T
  0.2996155061064435  0.0995888974612033  0.4991001882126843   T   T   T
  0.2001098919511080  0.1002613373335098  0.4285298208745227   T   T   T
  0.3000521294570190  0.0001943062128561  0.4285294353887629   T   T   T
  0.1995029030546989  0.1997879114665717  0.4991314211331339   T   T   T
  0.2986421735328816  0.2983934988892519  0.4996954392110110   T   T   T
  0.2003472269570527  0.3003402285311108  0.4292289909684734   T   T   T
  0.3000009356374421  0.2001627298734587  0.4289056924514668   T   T   T
  0.1990856394992937  0.4001623481922545  0.5012169232417374   T   T   T
  0.2997151164389364  0.5008451478809447  0.4977290759775710   T   T   T
  0.1999411287881457  0.4993231777184656  0.4286341080830279   T   T   T
  0.2995582374066484  0.3993316374946725  0.4289727686071319   T   T   T
  0.1998404319392696  0.5999579060717579  0.4988587911033948   T   T   T
  0.2998067194714241  0.7000896539068259  0.4988777268689542   T   T   T
  0.1999373320807198  0.6999979964563796  0.4284573696834273   T   T   T
  0.2998804998797538  0.6000961413598067  0.4284202067380456   T   T   T
  0.1999331926417426  0.8001316460997622  0.4989016218133568   T   T   T
  0.2998397972822436  0.9001775929134646  0.4988948745880351   T   T   T
  0.1999869397763575  0.9001640591504756  0.4284590258151328   T   T   T
  0.2999451545866693  0.8001122846523695  0.4284584424945368   T   T   T
  0.3998287061012274  0.9994596331528319  0.4992496680461854   T   T   T
  0.4993987738374783  0.1001802806620948  0.4981299888928756   T   T   T
  0.3996369178070053  0.1003789112022310  0.4290253171346090   T   T   T
  0.4999188639582363  0.0001453382548888  0.4287383903402451   T   T   T
  0.3978730441529439  0.1989721130974258  0.4999169992057086   T   T   T
  0.5001762118224792  0.2991189426525386  0.4987768659844581   T   T   T
  0.3994420063987394  0.2992811801020269  0.4290469511551798   T   T   T
  0.4992961331607013  0.1999160289019919  0.4290616877465069   T   T   T
  0.4005056060967921  0.3999604861932917  0.4975088702494707   T   T   T
  0.5001018028258637  0.4997328784573927  0.4977224284529271   T   T   T
  0.3996824259893467  0.5000172353937627  0.4285791745411803   T   T   T
  0.4998782143655672  0.3994262146789725  0.4285562573421240   T   T   T
  0.3996754143946087  0.6006884475521828  0.4992969505943436   T   T   T
  0.4998499331852870  0.7003744745462238  0.4990482564803394   T   T   T
  0.3998747931807360  0.7000377193295272  0.4285219665854476   T   T   T
  0.4998320921884272  0.6002065363830021  0.4287458537335746   T   T   T
  0.3998428866330517  0.8002280761540717  0.4988939548895382   T   T   T
  0.5000168191878305  0.9001428893682301  0.4990610658826199   T   T   T
  0.3999576781708667  0.9001967090444876  0.4285024702902893   T   T   T
  0.4999497456986278  0.8001926231234131  0.4284884503704001   T   T   T
  0.6003025652722841  0.9999954848679257  0.4989436642016015   T   T   T
  0.7029562786418115  0.0980843737269355  0.4994457457710015   T   T   T
  0.6005127985343690  0.1000337130464165  0.4290721841003280   T   T   T
  0.7001415299803885  0.0003221928656384  0.4287016091159043   T   T   T
  0.6006031869742596  0.1996122913682540  0.4982985426263730   T   T   T
  0.6998801920162051  0.3004567714064831  0.4978616560793278   T   T   T
  0.5999459706560208  0.2995022114924236  0.4285974726317603   T   T   T
  0.7005476091660455  0.1993321281750506  0.4289497942547810   T   T   T
  0.5999060430116947  0.3995569765412522  0.4987713402540753   T   T   T
  0.7000736759130893  0.4998612534222269  0.4977625304537291   T   T   T
  0.5999456553290835  0.5000511355180756  0.4286243014058262   T   T   T
  0.7000803283428724  0.3997930422041666  0.4284822366700732   T   T   T
  0.5998286725858235  0.6007554368691069  0.4991549727097710   T   T   T
  0.7000777995127174  0.7003835820269101  0.4990961800088566   T   T   T
  0.5999675586386243  0.7001575150959880  0.4285281332921241   T   T   T
  0.6999762432939209  0.6002694492139123  0.4287393637103410   T   T   T
  0.6000084419535265  0.8002906822851997  0.4988645364396520   T   T   T
  0.7001185536167422  0.8997355874058300  0.4988512858493468   T   T   T
  0.6000944740150690  0.9002380485473549  0.4285026351206294   T   T   T
  0.7000387968642806  0.8001586925711118  0.4284596671687783   T   T   T
  0.8003795292670818  0.9998019104796788  0.4989585606332179   T   T   T
  0.9004958542055165  0.1000968526777045  0.4989880271965915   T   T   T
  0.7999969749561855  0.1002745627437826  0.4288240994361674   T   T   T
  0.8999550932368836  0.0002555439628797  0.4284919769028942   T   T   T
  0.8008596479307175  0.1992813590930992  0.5001658388621850   T   T   T
  0.9004351101658846  0.2997693925800590  0.4996957459896903   T   T   T
  0.8002998386244817  0.2992991364949348  0.4288889912491018   T   T   T
  0.8998200875233084  0.1999973814394048  0.4288057103324054   T   T   T
  0.8007596570488141  0.4001908951096176  0.4977323109942063   T   T   T
  0.9004963896974919  0.4999364643711708  0.4989797162316934   T   T   T
  0.8003392275978605  0.5001103490229339  0.4285760197911522   T   T   T
  0.9003565009537026  0.3996040186276572  0.4284874469079347   T   T   T
  0.8003568047068313  0.6002777113035039  0.4991633942180980   T   T   T
  0.9002175361975704  0.7001676497478748  0.4989044483655962   T   T   T
  0.8000992055809392  0.7001279989808913  0.4285095242561878   T   T   T
  0.9001947982125322  0.6000352677895860  0.4285061826108562   T   T   T
  0.8001446284331414  0.8002540339023172  0.4989021498661040   T   T   T
  0.9001462174600370  0.9001487420501029  0.4988813767892543   T   T   T
  0.7999687903279956  0.9002096339263272  0.4284693086894409   T   T   T
  0.9000518366322668  0.8001508653960065  0.4284588320779987   T   T   T
  0.0000000000000000  0.0000000000000000  0.3590739999999997   F   F   F
  0.1000000000000014  0.1000000000000014  0.3590739999999997   F   F   F
  0.0000000000000000  0.1000000000000014  0.2886110000000031   F   F   F
  0.1000000000000014  0.0000000000000000  0.2886110000000031   F   F   F
  0.0000000000000000  0.2000000000000028  0.3590739999999997   F   F   F
  0.1000000000000014  0.2999999999999972  0.3590739999999997   F   F   F
  0.0000000000000000  0.2999999999999972  0.2886110000000031   F   F   F
  0.1000000000000014  0.2000000000000028  0.2886110000000031   F   F   F
  0.0000000000000000  0.3999999999999986  0.3590739999999997   F   F   F
  0.1000000000000014  0.5000000000000000  0.3590739999999997   F   F   F
  0.0000000000000000  0.5000000000000000  0.2886110000000031   F   F   F
  0.1000000000000014  0.3999999999999986  0.2886110000000031   F   F   F
  0.0000000000000000  0.6000000000000014  0.3590739999999997   F   F   F
  0.1000000000000014  0.7000000000000028  0.3590739999999997   F   F   F
  0.0000000000000000  0.7000000000000028  0.2886110000000031   F   F   F
  0.1000000000000014  0.6000000000000014  0.2886110000000031   F   F   F
  0.0000000000000000  0.7999999999999972  0.3590739999999997   F   F   F
  0.1000000000000014  0.8999999999999986  0.3590739999999997   F   F   F
  0.0000000000000000  0.8999999999999986  0.2886110000000031   F   F   F
  0.1000000000000014  0.7999999999999972  0.2886110000000031   F   F   F
  0.2000000000000028  0.0000000000000000  0.3590739999999997   F   F   F
  0.2999999999999972  0.1000000000000014  0.3590739999999997   F   F   F
  0.2000000000000028  0.1000000000000014  0.2886110000000031   F   F   F
  0.2999999999999972  0.0000000000000000  0.2886110000000031   F   F   F
  0.2000000000000028  0.2000000000000028  0.3590739999999997   F   F   F
  0.2999999999999972  0.2999999999999972  0.3590739999999997   F   F   F
  0.2000000000000028  0.2999999999999972  0.2886110000000031   F   F   F
  0.2999999999999972  0.2000000000000028  0.2886110000000031   F   F   F
  0.2000000000000028  0.3999999999999986  0.3590739999999997   F   F   F
  0.2999999999999972  0.5000000000000000  0.3590739999999997   F   F   F
  0.2000000000000028  0.5000000000000000  0.2886110000000031   F   F   F
  0.2999999999999972  0.3999999999999986  0.2886110000000031   F   F   F
  0.2000000000000028  0.6000000000000014  0.3590739999999997   F   F   F
  0.2999999999999972  0.7000000000000028  0.3590739999999997   F   F   F
  0.2000000000000028  0.7000000000000028  0.2886110000000031   F   F   F
  0.2999999999999972  0.6000000000000014  0.2886110000000031   F   F   F
  0.2000000000000028  0.7999999999999972  0.3590739999999997   F   F   F
  0.2999999999999972  0.8999999999999986  0.3590739999999997   F   F   F
  0.2000000000000028  0.8999999999999986  0.2886110000000031   F   F   F
  0.2999999999999972  0.7999999999999972  0.2886110000000031   F   F   F
  0.3999999999999986  0.0000000000000000  0.3590739999999997   F   F   F
  0.5000000000000000  0.1000000000000014  0.3590739999999997   F   F   F
  0.3999999999999986  0.1000000000000014  0.2886110000000031   F   F   F
  0.5000000000000000  0.0000000000000000  0.2886110000000031   F   F   F
  0.3999999999999986  0.2000000000000028  0.3590739999999997   F   F   F
  0.5000000000000000  0.2999999999999972  0.3590739999999997   F   F   F
  0.3999999999999986  0.2999999999999972  0.2886110000000031   F   F   F
  0.5000000000000000  0.2000000000000028  0.2886110000000031   F   F   F
  0.3999999999999986  0.3999999999999986  0.3590739999999997   F   F   F
  0.5000000000000000  0.5000000000000000  0.3590739999999997   F   F   F
  0.3999999999999986  0.5000000000000000  0.2886110000000031   F   F   F
  0.5000000000000000  0.3999999999999986  0.2886110000000031   F   F   F
  0.3999999999999986  0.6000000000000014  0.3590739999999997   F   F   F
  0.5000000000000000  0.7000000000000028  0.3590739999999997   F   F   F
  0.3999999999999986  0.7000000000000028  0.2886110000000031   F   F   F
  0.5000000000000000  0.6000000000000014  0.2886110000000031   F   F   F
  0.3999999999999986  0.7999999999999972  0.3590739999999997   F   F   F
  0.5000000000000000  0.8999999999999986  0.3590739999999997   F   F   F
  0.3999999999999986  0.8999999999999986  0.2886110000000031   F   F   F
  0.5000000000000000  0.7999999999999972  0.2886110000000031   F   F   F
  0.6000000000000014  0.0000000000000000  0.3590739999999997   F   F   F
  0.7000000000000028  0.1000000000000014  0.3590739999999997   F   F   F
  0.6000000000000014  0.1000000000000014  0.2886110000000031   F   F   F
  0.7000000000000028  0.0000000000000000  0.2886110000000031   F   F   F
  0.6000000000000014  0.2000000000000028  0.3590739999999997   F   F   F
  0.7000000000000028  0.2999999999999972  0.3590739999999997   F   F   F
  0.6000000000000014  0.2999999999999972  0.2886110000000031   F   F   F
  0.7000000000000028  0.2000000000000028  0.2886110000000031   F   F   F
  0.6000000000000014  0.3999999999999986  0.3590739999999997   F   F   F
  0.7000000000000028  0.5000000000000000  0.3590739999999997   F   F   F
  0.6000000000000014  0.5000000000000000  0.2886110000000031   F   F   F
  0.7000000000000028  0.3999999999999986  0.2886110000000031   F   F   F
  0.6000000000000014  0.6000000000000014  0.3590739999999997   F   F   F
  0.7000000000000028  0.7000000000000028  0.3590739999999997   F   F   F
  0.6000000000000014  0.7000000000000028  0.2886110000000031   F   F   F
  0.7000000000000028  0.6000000000000014  0.2886110000000031   F   F   F
  0.6000000000000014  0.7999999999999972  0.3590739999999997   F   F   F
  0.7000000000000028  0.8999999999999986  0.3590739999999997   F   F   F
  0.6000000000000014  0.8999999999999986  0.2886110000000031   F   F   F
  0.7000000000000028  0.7999999999999972  0.2886110000000031   F   F   F
  0.7999999999999972  0.0000000000000000  0.3590739999999997   F   F   F
  0.8999999999999986  0.1000000000000014  0.3590739999999997   F   F   F
  0.7999999999999972  0.1000000000000014  0.2886110000000031   F   F   F
  0.8999999999999986  0.0000000000000000  0.2886110000000031   F   F   F
  0.7999999999999972  0.2000000000000028  0.3590739999999997   F   F   F
  0.8999999999999986  0.2999999999999972  0.3590739999999997   F   F   F