Cu Mg  O                                
   1.0000000000000000     
    21.1388521970183838    0.0000000000000000    0.0000000000000000
     0.0000000000000000   21.1388521970183838    0.0000000000000000
     0.0000000000000000    0.0000000000000000   22.1138852197018352
   Cu  
     4 
Selective dynamics
Direct
  0.4002292820752612  0.4213287017938123  0.5928940098417090   T   T   T
  0.4006262650917017  0.5057286488019122  0.6565974946215744   T   T   T
  0.4008508373886916  0.6135778707828121  0.6912101839945594   T   T   T
  0.4002489905959235  0.5942042823795176  0.5903158945820191   T   T   T
