au4                                     
   1.00000000000000     
    20.0000000000000000    0.0000000000000000    0.0000000000000000
     0.0000000000000000   20.0000000000000000    0.0000000000000000
     0.0000000000000000    0.0000000000000000   20.0000000000000000
   Au
     4
Direct
  0.9388892099510926  0.0129272279227024  0.0130019187627539
  0.0612977098770671  0.9864587463171404  0.9872388168196409
  0.1219594340092982  0.9599484923023880  0.8804763916670311
  0.8778536461575399  0.0406655334527670  0.1192828727505670
 
  0.00000000E+00  0.00000000E+00  0.00000000E+00
  0.00000000E+00  0.00000000E+00  0.00000000E+00
  0.00000000E+00  0.00000000E+00  0.00000000E+00
  0.00000000E+00  0.00000000E+00  0.00000000E+00
