au8                                     
   1.0000000000000000     
    20.0000000000000000    0.0000000000000000    0.0000000000000000
     0.0000000000000000   20.0000000000000000    0.0000000000000000
     0.0000000000000000    0.0000000000000000   20.0000000000000000
   Au
     8
Direct
  0.0399869752003568  0.9277204520718385  0.0000000000000000
  0.0399869752003568  0.0722794979281645  0.0000000000000000
  0.1733820798009162  0.9096006051998344  0.0000000000000000
  0.1733820798009162  0.0903993948001656  0.0000000000000000
  0.2480130247996399  0.0000000000000000  0.0722794979281645
  0.2480130247996399  0.0000000000000000  0.9277205020718355
  0.1146179201990876  0.0000000000000000  0.9096006051998344
  0.1146179201990876  0.0000000000000000  0.0903993948001656

  0.00000000E+00  0.00000000E+00  0.00000000E+00
  0.00000000E+00  0.00000000E+00  0.00000000E+00
  0.00000000E+00  0.00000000E+00  0.00000000E+00
  0.00000000E+00  0.00000000E+00  0.00000000E+00
  0.00000000E+00  0.00000000E+00  0.00000000E+00
  0.00000000E+00  0.00000000E+00  0.00000000E+00
  0.00000000E+00  0.00000000E+00  0.00000000E+00
  0.00000000E+00  0.00000000E+00  0.00000000E+00
