Ag                                      
   1.0000000000000000     
    20.0000000000000000    0.0000000000000000    0.0000000000000000
     0.0000000000000000   20.0000000000000000    0.0000000000000000
     0.0000000000000000    0.0000000000000000   20.0000000000000000
   Ag
     8
Direct
  0.5878748975787338  0.5213966251727508  0.5353071386317070
  0.5958414172948326  0.4489020790418303  0.6465328015989676
  0.4037137600413827  0.5519646696796505  0.3534751113141976
  0.3622989536438737  0.3920116292834219  0.5518569915715119
  0.4120268516892220  0.4787441495058383  0.4642300258768068
  0.5156396903249564  0.5603753326513331  0.4248639054205466
  0.6377141299069149  0.6079567595001787  0.4475327255658374
  0.4842077692750759  0.4399148710849999  0.5747579323804177

  0.00000000E+00  0.00000000E+00  0.00000000E+00
  0.00000000E+00  0.00000000E+00  0.00000000E+00
  0.00000000E+00  0.00000000E+00  0.00000000E+00
  0.00000000E+00  0.00000000E+00  0.00000000E+00
  0.00000000E+00  0.00000000E+00  0.00000000E+00
  0.00000000E+00  0.00000000E+00  0.00000000E+00
  0.00000000E+00  0.00000000E+00  0.00000000E+00
  0.00000000E+00  0.00000000E+00  0.00000000E+00
