Mg  O                                   
   1.0000000000000000     
    21.1388521970183838    0.0000000000000000    0.0000000000000000
     0.0000000000000000   21.1388521970183838    0.0000000000000000
     0.0000000000000000    0.0000000000000000   30.0000000000000000
   Au   Mg   O 
    20   200   200
Selective dynamics
Direct
  0.5249268147491963  0.4473155381407858  0.6039221136367057   T   T   T
  0.3923144974676162  0.4616682445388335  0.6107869358855960   T   T   T
  0.2634174451623340  0.4760903970736904  0.6107821857573875   T   T   T
  0.1417616021719305  0.4878197416204972  0.5809137300314434   T   T   T
  0.5965135804590722  0.5519925366366579  0.5990429784754553   T   T   T
  0.4691029172358079  0.5638666050833555  0.6099490868331456   T   T   T
  0.3424391615959012  0.5795564678803352  0.6151065810810510   T   T   T
  0.2227902442055044  0.5896420027812528  0.5802423554978808   T   T   T
  0.5666639370823670  0.3284176935246865  0.6077754217058835   T   T   T
  0.4413901464096706  0.3448081941478119  0.6056639289828311   T   T   T
  0.3155603060304682  0.3568345821938188  0.6064386094558537   T   T   T
  0.1887605667817515  0.3719295297882536  0.5961968333926739   T   T   T
  0.6638941724742710  0.6570241755613700  0.5803482333709385   T   T   T
  0.5419019778867046  0.6706741632892977  0.6003642930226515   T   T   T
  0.4197585221244146  0.6852219048725832  0.6132369566333273   T   T   T
  0.3058160757764127  0.6881373214905572  0.5755325358503938   T   T   T
  0.5903241332429361  0.2156707983278019  0.5720962192132965   T   T   T
  0.4829435922204526  0.2239208191246388  0.6153013455563255   T   T   T
  0.3614565698524931  0.2376944328399904  0.5986817268529375   T   T   T
  0.2351629968049662  0.2551855040885480  0.5906151430555912   T   T   T
  0.0000037318572841  0.0001083145405188  0.4296760498235115   T   T   T
  0.1000465854618335  0.1001005264504134  0.4298190481839591   T   T   T
 -0.0000224526119506  0.0999255671288040  0.4997064067224430   T   T   T
  0.0997317074852278  0.0002139008728253  0.4996799496073991   T   T   T
  0.0001333106927269  0.1999597748774210  0.4297578346314299   T   T   T
  0.1002306539029541  0.2997813371742961  0.4298594111678010   T   T   T
  0.9997602796325354  0.2997040631518206  0.4998315907798366   T   T   T
  0.0996964380302092  0.1998354287555865  0.5000715139396024   T   T   T
 -0.0000051041340916  0.3998377438395378  0.4298395420659697   T   T   T
  0.0998953697469019  0.4998059399063702  0.4293672093215555   T   T   T
  0.9982902942032954  0.4997211876361069  0.4999450101662569   T   T   T
  0.0997093210603596  0.3984836999277135  0.5002056052618795   T   T   T
  0.9995936934515061  0.6000339214452404  0.4297758668559369   T   T   T
  0.0994955374139441  0.7003616522621652  0.4296174191210330   T   T   T
  0.9992994636881392  0.7006087330405339  0.4997123672877303   T   T   T
  0.0978991812763662  0.6012113966829120  0.4999792255781508   T   T   T
  0.9998090157727965  0.8002194859935967  0.4296798155640745   T   T   T
  0.0998324940717959  0.9003061434182252  0.4296667960939919   T   T   T
  0.9997668603016220  0.9003473517789926  0.4995954702763777   T   T   T
  0.0991982234150272  0.8009964541641648  0.4996914806979163   T   T   T
  0.1999325266262352  0.0002447468833554  0.4297316969384716   T   T   T
  0.3000006220968019  0.1002460991340343  0.4298878131543719   T   T   T
  0.1999798831564863  0.0995644350646816  0.4999292516733179   T   T   T
  0.2999175730582825  0.0002133550152303  0.4997141928794556   T   T   T
  0.2002259558952404  0.2001182239334212  0.4297417716736037   T   T   T
  0.3002583014315344  0.2999759751177040  0.4297578283962982   T   T   T
  0.2004046602249203  0.3000309970684679  0.5009635213670365   T   T   T
  0.3002879967133151  0.2000599029986743  0.5008349536509161   T   T   T
  0.2003275536612587  0.3993284903619368  0.4294670238922049   T   T   T
  0.3007384347987402  0.4994070623285791  0.4295439029716397   T   T   T
  0.2020892579312472  0.4982314049138895  0.4995052830791155   T   T   T
  0.3008485592577035  0.3994836653426652  0.5006398752310512   T   T   T
  0.1999581551397696  0.6001909302949233  0.4291941312160258   T   T   T
  0.3001861828199813  0.7004011097176447  0.4289552958848015   T   T   T
  0.1975832933003157  0.7023903576785263  0.4995110523622158   T   T   T
  0.3023393632683359  0.5979607736819466  0.4997751988967367   T   T   T
  0.1998081726734636  0.8006199700268213  0.4296119955150637   T   T   T
  0.3000227900225194  0.9005679821458548  0.4295505032314362   T   T   T
  0.1995042565868048  0.9007444488037687  0.4996566683472623   T   T   T
  0.3000054466216712  0.8028940132439844  0.4993454449845101   T   T   T
  0.4000243523083140  0.0001479281089394  0.4297269712310456   T   T   T
  0.4999651134006062  0.1000370738461264  0.4298890665391057   T   T   T
  0.3996877785902496  0.0995634841102194  0.4999740588880480   T   T   T
  0.4999016954391511 -0.0002129065223971  0.4997479715637175   T   T   T
  0.3996428284478540  0.2001788649147225  0.4297021093146995   T   T   T
  0.4997795334585402  0.3001532090124237  0.4299549674630158   T   T   T
  0.3999935666226522  0.3001392551051867  0.5011036441229730   T   T   T
  0.4970871589995406  0.1997320571931728  0.5005621350638498   T   T   T
  0.4003179250921083  0.3998422000136300  0.4299276580527927   T   T   T
  0.4999841225186683  0.4998899067093427  0.4299001564852123   T   T   T
  0.4006309334976650  0.4996308087692860  0.5009954488360929   T   T   T
  0.4998506295788397  0.4001150143478399  0.5014414590337899   T   T   T
  0.4006243018349792  0.5999381135550756  0.4298207739528759   T   T   T
  0.5001920937732500  0.6998356210913450  0.4296514849397917   T   T   T
  0.4026075823362860  0.7005558410487378  0.5008817942407945   T   T   T
  0.5001647190732018  0.5995391741279859  0.5008829235008257   T   T   T
  0.4001874491144304  0.8000584367685081  0.4298454055306640   T   T   T
  0.5000355704962782  0.8999326025141942  0.4297204740987451   T   T   T
  0.4002717786911460  0.9004468901214826  0.4997489542352219   T   T   T
  0.5003119075539684  0.8005387040412685  0.5000162889679051   T   T   T
  0.6000944504585201  0.9995810796646037  0.4295421182701276   T   T   T
  0.7003478732530315  0.0997196757390056  0.4296944011436925   T   T   T
  0.6006449048825405  0.0969513012301651  0.4994279915214017   T   T   T
  0.7007141074600421  0.9994918475824545  0.4996525942775832   T   T   T
  0.6001341411376024  0.1999566468829987  0.4288586879130659   T   T   T
  0.7000383636490624  0.3001073906207730  0.4297607547419235   T   T   T
  0.6001612885114208  0.3035172443508629  0.5000665112415529   T   T   T
  0.7032388738708140  0.1995261568917315  0.4993450917254798   T   T   T
  0.5996663623102153  0.4004874578729337  0.4296627026364435   T   T   T
  0.6996353621127585  0.4997071030818609  0.4296729720895914   T   T   T
  0.5995265792707420  0.4998718943960757  0.5009789792671860   T   T   T
  0.7003179459463114  0.4002884064710333  0.4998231745116503   T   T   T
  0.5995965890818608  0.5996591214473602  0.4294775823607985   T   T   T
  0.6998183561486725  0.6997617693341305  0.4294128902344929   T   T   T
  0.5987306977626592  0.6998817749792816  0.5005553177024490   T   T   T
  0.6998684812713934  0.5977222571304264  0.4995829978286813   T   T   T
  0.6000214914213294  0.7998505383182352  0.4298900138967615   T   T   T
  0.7000995384766875  0.8998992242222625  0.4297406934722865   T   T   T
  0.6000965287224849  0.8999470798979362  0.4997176634311679   T   T   T
  0.7000914157452253  0.8010473313124249  0.5002092324760441   T   T   T
  0.8001670229235081 -0.0001145047521475  0.4296528153009366   T   T   T
  0.9001752746091554  0.0999384697045852  0.4296871140410463   T   T   T
  0.8006749528778204  0.0993900090685207  0.4996165594664785   T   T   T
  0.9002023345693539 -0.0000611953144825  0.4995997135624724   T   T   T
  0.8005213729866134  0.1999345828725182  0.4294930568157020   T   T   T
  0.9001198231087041  0.2999390576247548  0.4297183789888835   T   T   T
  0.8003888663586585  0.3001805486060694  0.4996779745043590   T   T   T
  0.9002511290248226  0.1998157702120285  0.4996552166741109   T   T   T
  0.7999267320627617  0.3999497873462673  0.4297043384473540   T   T   T
  0.8997181435229936  0.4998753964630429  0.4297007126076859   T   T   T
  0.8000611934999182  0.4997313930438931  0.4997590662268413   T   T   T
  0.8998280068757396  0.3996632675789898  0.4997208612750478   T   T   T
  0.7998839087712233  0.5998814504776082  0.4297791127470603   T   T   T
  0.8998490587758262  0.7000565448418711  0.4297291654041418   T   T   T
  0.8009474029449434  0.6999241959250568  0.5000942590626979   T   T   T
  0.8996526164328031  0.6000060860630941  0.4997394309134727   T   T   T
  0.7999575557860276  0.7999533257112699  0.4298840569149323   T   T   T
  0.8999931807279518  0.9000399372132593  0.4296765788072663   T   T   T
  0.8003662131801368  0.9000097527535036  0.4996870437168914   T   T   T
  0.8999359093295943  0.8003755132983194  0.4996883790699445   T   T   T
  0.0000000000000000  0.0000000000000000  0.2886110000000031   F   F   F
  0.1000000000000014  0.1000000000000014  0.2886110000000031   F   F   F
  0.0000000000000000  0.1000000000000014  0.3590739999999997   F   F   F
  0.1000000000000014  0.0000000000000000  0.3590739999999997   F   F   F
  0.0000000000000000  0.2000000000000028  0.2886110000000031   F   F   F
  0.1000000000000014  0.2999999999999972  0.2886110000000031   F   F   F
  0.0000000000000000  0.2999999999999972  0.3590739999999997   F   F   F
  0.1000000000000014  0.2000000000000028  0.3590739999999997   F   F   F
  0.0000000000000000  0.3999999999999986  0.2886110000000031   F   F   F
  0.1000000000000014  0.5000000000000000  0.2886110000000031   F   F   F
  0.0000000000000000  0.5000000000000000  0.3590739999999997   F   F   F
  0.1000000000000014  0.3999999999999986  0.3590739999999997   F   F   F
  0.0000000000000000  0.6000000000000014  0.2886110000000031   F   F   F
  0.1000000000000014  0.7000000000000028  0.2886110000000031   F   F   F
  0.0000000000000000  0.7000000000000028  0.3590739999999997   F   F   F
  0.1000000000000014  0.6000000000000014  0.3590739999999997   F   F   F
  0.0000000000000000  0.7999999999999972  0.2886110000000031   F   F   F
  0.1000000000000014  0.8999999999999986  0.2886110000000031   F   F   F
  0.0000000000000000  0.8999999999999986  0.3590739999999997   F   F   F
  0.1000000000000014  0.7999999999999972  0.3590739999999997   F   F   F
  0.2000000000000028  0.0000000000000000  0.2886110000000031   F   F   F
  0.2999999999999972  0.1000000000000014  0.2886110000000031   F   F   F
  0.2000000000000028  0.1000000000000014  0.3590739999999997   F   F   F
  0.2999999999999972  0.0000000000000000  0.3590739999999997   F   F   F
  0.2000000000000028  0.2000000000000028  0.2886110000000031   F   F   F
  0.2999999999999972  0.2999999999999972  0.2886110000000031   F   F   F
  0.2000000000000028  0.2999999999999972  0.3590739999999997   F   F   F
  0.2999999999999972  0.2000000000000028  0.3590739999999997   F   F   F
  0.2000000000000028  0.3999999999999986  0.2886110000000031   F   F   F
  0.2999999999999972  0.5000000000000000  0.2886110000000031   F   F   F
  0.2000000000000028  0.5000000000000000  0.3590739999999997   F   F   F
  0.2999999999999972  0.3999999999999986  0.3590739999999997   F   F   F
  0.2000000000000028  0.6000000000000014  0.2886110000000031   F   F   F
  0.2999999999999972  0.7000000000000028  0.2886110000000031   F   F   F
  0.2000000000000028  0.7000000000000028  0.3590739999999997   F   F   F
  0.2999999999999972  0.6000000000000014  0.3590739999999997   F   F   F
  0.2000000000000028  0.7999999999999972  0.2886110000000031   F   F   F
  0.2999999999999972  0.8999999999999986  0.2886110000000031   F   F   F
  0.2000000000000028  0.8999999999999986  0.3590739999999997   F   F   F
  0.2999999999999972  0.7999999999999972  0.3590739999999997   F   F   F
  0.3999999999999986  0.0000000000000000  0.2886110000000031   F   F   F
  0.5000000000000000  0.1000000000000014  0.2886110000000031   F   F   F
  0.3999999999999986  0.1000000000000014  0.3590739999999997   F   F   F
  0.5000000000000000  0.0000000000000000  0.3590739999999997   F   F   F
  0.3999999999999986  0.2000000000000028  0.2886110000000031   F   F   F
  0.5000000000000000  0.2999999999999972  0.2886110000000031   F   F   F
  0.3999999999999986  0.2999999999999972  0.3590739999999997   F   F   F
  0.5000000000000000  0.2000000000000028  0.3590739999999997   F   F   F
  0.3999999999999986  0.3999999999999986  0.2886110000000031   F   F   F
  0.5000000000000000  0.5000000000000000  0.2886110000000031   F   F   F
  0.3999999999999986  0.5000000000000000  0.3590739999999997   F   F   F
  0.5000000000000000  0.3999999999999986  0.3590739999999997   F   F   F
  0.3999999999999986  0.6000000000000014  0.2886110000000031   F   F   F
  0.5000000000000000  0.7000000000000028  0.2886110000000031   F   F   F
  0.3999999999999986  0.7000000000000028  0.3590739999999997   F   F   F
  0.5000000000000000  0.6000000000000014  0.3590739999999997   F   F   F
  0.3999999999999986  0.7999999999999972  0.2886110000000031   F   F   F
  0.5000000000000000  0.8999999999999986  0.2886110000000031   F   F   F
  0.3999999999999986  0.8999999999999986  0.3590739999999997   F   F   F
  0.5000000000000000  0.7999999999999972  0.3590739999999997   F   F   F
  0.6000000000000014  0.0000000000000000  0.2886110000000031   F   F   F
  0.7000000000000028  0.1000000000000014  0.2886110000000031   F   F   F
  0.6000000000000014  0.1000000000000014  0.3590739999999997   F   F   F
  0.7000000000000028  0.0000000000000000  0.3590739999999997   F   F   F
  0.6000000000000014  0.2000000000000028  0.2886110000000031   F   F   F
  0.7000000000000028  0.2999999999999972  0.2886110000000031   F   F   F
  0.6000000000000014  0.2999999999999972  0.3590739999999997   F   F   F
  0.7000000000000028  0.2000000000000028  0.3590739999999997   F   F   F
  0.6000000000000014  0.3999999999999986  0.2886110000000031   F   F   F
  0.7000000000000028  0.5000000000000000  0.2886110000000031   F   F   F
  0.6000000000000014  0.5000000000000000  0.3590739999999997   F   F   F
  0.7000000000000028  0.3999999999999986  0.3590739999999997   F   F   F
  0.6000000000000014  0.6000000000000014  0.2886110000000031   F   F   F
  0.7000000000000028  0.7000000000000028  0.2886110000000031   F   F   F
  0.6000000000000014  0.7000000000000028  0.3590739999999997   F   F   F
  0.7000000000000028  0.6000000000000014  0.3590739999999997   F   F   F
  0.6000000000000014  0.7999999999999972  0.2886110000000031   F   F   F
  0.7000000000000028  0.8999999999999986  0.2886110000000031   F   F   F
  0.6000000000000014  0.8999999999999986  0.3590739999999997   F   F   F
  0.7000000000000028  0.7999999999999972  0.3590739999999997   F   F   F
  0.7999999999999972  0.0000000000000000  0.2886110000000031   F   F   F
  0.8999999999999986  0.1000000000000014  0.2886110000000031   F   F   F
  0.7999999999999972  0.1000000000000014  0.3590739999999997   F   F   F
  0.8999999999999986  0.0000000000000000  0.3590739999999997   F   F   F
  0.7999999999999972  0.2000000000000028  0.2886110000000031   F   F   F
  0.8999999999999986  0.2999999999999972  0.2886110000000031   F   F   F
  0.7999999999999972  0.2999999999999972  0.3590739999999997   F   F   F
  0.8999999999999986  0.2000000000000028  0.3590739999999997   F   F   F
  0.7999999999999972  0.3999999999999986  0.2886110000000031   F   F   F
  0.8999999999999986  0.5000000000000000  0.2886110000000031   F   F   F
  0.7999999999999972  0.5000000000000000  0.3590739999999997   F   F   F
  0.8999999999999986  0.3999999999999986  0.3590739999999997   F   F   F
  0.7999999999999972  0.6000000000000014  0.2886110000000031   F   F   F
  0.8999999999999986  0.7000000000000028  0.2886110000000031   F   F   F
  0.7999999999999972  0.7000000000000028  0.3590739999999997   F   F   F
  0.8999999999999986  0.6000000000000014  0.3590739999999997   F   F   F
  0.7999999999999972  0.7999999999999972  0.2886110000000031   F   F   F
  0.8999999999999986  0.8999999999999986  0.2886110000000031   F   F   F
  0.7999999999999972  0.8999999999999986  0.3590739999999997   F   F   F
  0.8999999999999986  0.7999999999999972  0.3590739999999997   F   F   F
  0.9998831308717634 -0.0000296349674090  0.5007829454778712   T   T   T
  0.0997906335801253  0.0998532207313226  0.5009677642405650   T   T   T
  0.0000105842508657  0.0999784675372330  0.4295052324074148   T   T   T
  0.0998959063199429  0.0000496822632938  0.4294808346918924   T   T   T
 -0.0001233599288584  0.1998549493536483  0.5008944997086772   T   T   T
  0.0995782978013943  0.2997234845510490  0.5009068103016111   T   T   T
  0.0000892368613279  0.3000107394471586  0.4295528495559148   T   T   T
  0.1000442783026894  0.1999196439342709  0.4296934338853308   T   T   T
  0.9998618781014952  0.4000551831520926  0.5009443382164867   T   T   T
  0.0983597676370547  0.5006902344659895  0.5025125802589522   T   T   T
  0.0002509887622516  0.5001525592332658  0.4297845630648018   T   T   T
  0.0997817670314264  0.4004689287562849  0.4297630247023074   T   T   T
  0.9994498383817025  0.6002151975155111  0.5009480585403988   T   T   T
  0.0992351910927687  0.7005615694669880  0.5008282988779958   T   T   T
  0.9999230690222053  0.7000058215535732  0.4294987173323787   T   T   T
  0.1000054290716760  0.5998651012189657  0.4299727028656861   T   T   T
  0.9997394149165382  0.8002714800104318  0.5007758689023465   T   T   T
  0.0996283396610001  0.9002673924937038  0.5007748390106408   T   T   T
  0.9999240567354449  0.9000071929677842  0.4294372250689000   T   T   T
  0.0998557369899573  0.8000959312021027  0.4294825026591728   T   T   T
  0.1996918204553820 -0.0000453418953686  0.5008286106587891   T   T   T
  0.2998322241470952  0.0995805844944560  0.5009231054368085   T   T   T
  0.1998518672455941  0.1000214833146552  0.4296318692788042   T   T   T
  0.2999245138624413  0.0000919308472672  0.4294841965740190   T   T   T
  0.1996658395975200  0.1992486209568775  0.5014341306695581   T   T   T
  0.3004744939376562  0.3001978820188442  0.4992278539689551   T   T   T
  0.1996905298235140  0.2996176524876639  0.4295587804184066   T   T   T
  0.2997161288537321  0.1997152443286957  0.4295869645517940   T   T   T
  0.1998349364648985  0.3998313327403204  0.4988624193286354   T   T   T
  0.3001881128345295  0.4999162256862325  0.4996156125374910   T   T   T
  0.1994234267883960  0.5007059028608745  0.4298648223910132   T   T   T
  0.2999337640087277  0.4001321497781820  0.4292189364026352   T   T   T
  0.1984169308822801  0.6016068457162770  0.5011958829538863   T   T   T
  0.2981260389423288  0.7027425035793692  0.5001765768057538   T   T   T
  0.1997951082347456  0.7000647671036404  0.4297313041540075   T   T   T
  0.2993498060588132  0.6006962751274061  0.4299619612299055   T   T   T
  0.1995120145401743  0.8008254102474915  0.5007082414841648   T   T   T
  0.2998179413700645  0.9006846123429556  0.5006805929910079   T   T   T
  0.1998465446644508  0.9001661100661752  0.4294416228000132   T   T   T
  0.2997082971961534  0.8001867217539033  0.4294888893910724   T   T   T
  0.4001280380822204 -0.0000464507052744  0.5008319608173327   T   T   T
  0.5006463485696477  0.0998565909977113  0.5008055683510036   T   T   T
  0.4001288934322604  0.0998273250397848  0.4295400604278345   T   T   T
  0.5002064799030919  0.9999335712617681  0.4295370527981986   T   T   T
  0.3996222662023612  0.1991507254676935  0.5000560895299400   T   T   T
  0.5005318726010430  0.2992373286656044  0.4997849878141182   T   T   T
  0.4002099876661886  0.2996995939675619  0.4294232119005112   T   T   T
  0.5007885595936659  0.1996075401130304  0.4299492905138325   T   T   T
  0.4001570569222166  0.3999647148339905  0.5002433096024920   T   T   T
  0.4996607680740076  0.5000813237982624  0.4999823944126470   T   T   T
  0.3998975720472985  0.5002112776014463  0.4294206803122991   T   T   T
  0.5002077973533777  0.3998575186057374  0.4295624029573707   T   T   T
  0.3999410929169396  0.6007085055691265  0.4999873284926910   T   T   T
  0.5002633586231436  0.7006796978252383  0.5000300502235735   T   T   T
  0.3994522575021462  0.7003557703236479  0.4298330245214642   T   T   T
  0.4997535828633685  0.6003540089164532  0.4292445878596231   T   T   T
  0.3997187046993957  0.8004380772237170  0.5007219583718846   T   T   T
  0.5001240587682872  0.9000964612714566  0.5008329732139513   T   T   T
  0.3999456580631611  0.9000888354410217  0.4295096245892492   T   T   T
  0.5000160664475063  0.8001098316283907  0.4295244763293612   T   T   T
  0.6003509390011662  0.9993029891759796  0.5007037714599714   T   T   T
  0.7007955534320572  0.0993302245624827  0.5007477918631434   T   T   T
  0.6003513603039138  0.1000186700302766  0.4296452189117689   T   T   T
  0.7001603299699355  0.9998137329261816  0.4294601901430750   T   T   T
  0.6035433240221708  0.1968782842917894  0.5010114073127321   T   T   T
  0.7002989326684472  0.2995999889961881  0.5006734864070428   T   T   T
  0.6003607952504235  0.2993192604326076  0.4298809048449216   T   T   T
  0.7001373082961693  0.1997203602162519  0.4295752025434525   T   T   T
  0.6005629842876384  0.4005492525909454  0.5001812100284925   T   T   T
  0.7005017630255058  0.4994636102090282  0.5004703801027497   T   T   T
  0.6001876561670346  0.4998143755810541  0.4292413541405186   T   T   T
  0.7002065289325127  0.3997609224857203  0.4294291410190330   T   T   T
  0.5996573683916490  0.5995913404473594  0.4981765984787141   T   T   T
  0.7010666338943319  0.7004229634576234  0.5033137152436437   T   T   T
  0.6006154181360827  0.7003122163933173  0.4296928056103367   T   T   T
  0.7003915433217633  0.6003395837252765  0.4295823426321133   T   T   T
  0.6003511731146489  0.8002793742089324  0.5008300770013340   T   T   T
  0.7003598628948311  0.9000802318154820  0.5008800647371975   T   T   T
  0.6002067908363923  0.8998403665953173  0.4294822694966134   T   T   T
  0.7002059058088528  0.7995728356574376  0.4298972273869395   T   T   T
  0.8004229009264298  0.9996935132059377  0.5007472021462991   T   T   T
  0.9001396467422836  0.0997852184505652  0.5007866680434987   T   T   T
  0.8002181408273562  0.0998922512797457  0.4294386508241047   T   T   T
  0.9000589910277711  0.9999277417739787  0.4294287912020102   T   T   T
  0.8008337921497217  0.1997674901144062  0.5006633996531688   T   T   T
  0.9001133637742549  0.2998943097288700  0.5008220764357745   T   T   T
  0.8001898766296454  0.2998247403628663  0.4294759545521666   T   T   T
  0.9002013938086828  0.1999451949400995  0.4294478436297347   T   T   T
  0.8002646017547415  0.3997837851677321  0.5007843720606300   T   T   T
  0.8997810424531593  0.4999226869550805  0.5008720299085441   T   T   T
  0.8001003611162395  0.4999506973726242  0.4294900473100817   T   T   T
  0.9001297872121855  0.4000357881087257  0.4295006624916779   T   T   T
  0.8002134831542073  0.5999756821054977  0.5007697050187617   T   T   T
  0.9000659425646764  0.7001456811514027  0.5008851721171924   T   T   T
  0.7996916271724990  0.7000314440630937  0.4298307175950962   T   T   T
  0.8999921049795842  0.6000361171638025  0.4295194089101569   T   T   T
  0.8001865810087704  0.8000794928577679  0.5010421543810155   T   T   T
  0.9000851490018056  0.9000058454923758  0.5007820408701718   T   T   T
  0.8000450321821911  0.8998508425327844  0.4295002166312875   T   T   T
  0.8999596677719734  0.7999369648799846  0.4295087839171655   T   T   T
  0.0000000000000000  0.0000000000000000  0.3590739999999997   F   F   F
  0.1000000000000014  0.1000000000000014  0.3590739999999997   F   F   F
  0.0000000000000000  0.1000000000000014  0.2886110000000031   F   F   F
  0.1000000000000014  0.0000000000000000  0.2886110000000031   F   F   F
  0.0000000000000000  0.2000000000000028  0.3590739999999997   F   F   F
  0.1000000000000014  0.2999999999999972  0.3590739999999997   F   F   F
  0.0000000000000000  0.2999999999999972  0.2886110000000031   F   F   F
  0.1000000000000014  0.2000000000000028  0.2886110000000031   F   F   F
  0.0000000000000000  0.3999999999999986  0.3590739999999997   F   F   F
  0.1000000000000014  0.5000000000000000  0.3590739999999997   F   F   F
  0.0000000000000000  0.5000000000000000  0.2886110000000031   F   F   F
  0.1000000000000014  0.3999999999999986  0.2886110000000031   F   F   F
  0.0000000000000000  0.6000000000000014  0.3590739999999997   F   F   F
  0.1000000000000014  0.7000000000000028  0.3590739999999997   F   F   F
  0.0000000000000000  0.7000000000000028  0.2886110000000031   F   F   F
  0.1000000000000014  0.6000000000000014  0.2886110000000031   F   F   F
  0.0000000000000000  0.7999999999999972  0.3590739999999997   F   F   F
  0.1000000000000014  0.8999999999999986  0.3590739999999997   F   F   F
  0.0000000000000000  0.8999999999999986  0.2886110000000031   F   F   F
  0.1000000000000014  0.7999999999999972  0.2886110000000031   F   F   F
  0.2000000000000028  0.0000000000000000  0.3590739999999997   F   F   F
  0.2999999999999972  0.1000000000000014  0.3590739999999997   F   F   F
  0.2000000000000028  0.1000000000000014  0.2886110000000031   F   F   F
  0.2999999999999972  0.0000000000000000  0.2886110000000031   F   F   F
  0.2000000000000028  0.2000000000000028  0.3590739999999997   F   F   F
  0.2999999999999972  0.2999999999999972  0.3590739999999997   F   F   F
  0.2000000000000028  0.2999999999999972  0.2886110000000031   F   F   F
  0.2999999999999972  0.2000000000000028  0.2886110000000031   F   F   F
  0.2000000000000028  0.3999999999999986  0.3590739999999997   F   F   F
  0.2999999999999972  0.5000000000000000  0.3590739999999997   F   F   F
  0.2000000000000028  0.5000000000000000  0.2886110000000031   F   F   F
  0.2999999999999972  0.3999999999999986  0.2886110000000031   F   F   F
  0.2000000000000028  0.6000000000000014  0.3590739999999997   F   F   F
  0.2999999999999972  0.7000000000000028  0.3590739999999997   F   F   F
  0.2000000000000028  0.7000000000000028  0.2886110000000031   F   F   F
  0.2999999999999972  0.6000000000000014  0.2886110000000031   F   F   F
  0.2000000000000028  0.7999999999999972  0.3590739999999997   F   F   F
  0.2999999999999972  0.8999999999999986  0.3590739999999997   F   F   F
  0.2000000000000028  0.8999999999999986  0.2886110000000031   F   F   F
  0.2999999999999972  0.7999999999999972  0.2886110000000031   F   F   F
  0.3999999999999986  0.0000000000000000  0.3590739999999997   F   F   F
  0.5000000000000000  0.1000000000000014  0.3590739999999997   F   F   F
  0.3999999999999986  0.1000000000000014  0.2886110000000031   F   F   F
  0.5000000000000000  0.0000000000000000  0.2886110000000031   F   F   F
  0.3999999999999986  0.2000000000000028  0.3590739999999997   F   F   F
  0.5000000000000000  0.2999999999999972  0.3590739999999997   F   F   F
  0.3999999999999986  0.2999999999999972  0.2886110000000031   F   F   F
  0.5000000000000000  0.2000000000000028  0.2886110000000031   F   F   F
  0.3999999999999986  0.3999999999999986  0.3590739999999997   F   F   F
  0.5000000000000000  0.5000000000000000  0.3590739999999997   F   F   F
  0.3999999999999986  0.5000000000000000  0.2886110000000031   F   F   F
  0.5000000000000000  0.3999999999999986  0.2886110000000031   F   F   F
  0.3999999999999986  0.6000000000000014  0.3590739999999997   F   F   F
  0.5000000000000000  0.7000000000000028  0.3590739999999997   F   F   F
  0.3999999999999986  0.7000000000000028  0.2886110000000031   F   F   F
  0.5000000000000000  0.6000000000000014  0.2886110000000031   F   F   F
  0.3999999999999986  0.7999999999999972  0.3590739999999997   F   F   F
  0.5000000000000000  0.8999999999999986  0.3590739999999997   F   F   F
  0.3999999999999986  0.8999999999999986  0.2886110000000031   F   F   F
  0.5000000000000000  0.7999999999999972  0.2886110000000031   F   F   F
  0.6000000000000014  0.0000000000000000  0.3590739999999997   F   F   F
  0.7000000000000028  0.1000000000000014  0.3590739999999997   F   F   F
  0.6000000000000014  0.1000000000000014  0.2886110000000031   F   F   F
  0.7000000000000028  0.0000000000000000  0.2886110000000031   F   F   F
  0.6000000000000014  0.2000000000000028  0.3590739999999997   F   F   F
  0.7000000000000028  0.2999999999999972  0.3590739999999997   F   F   F
  0.6000000000000014  0.2999999999999972  0.2886110000000031   F   F   F
  0.7000000000000028  0.2000000000000028  0.2886110000000031   F   F   F
  0.6000000000000014  0.3999999999999986  0.3590739999999997   F   F   F
  0.7000000000000028  0.5000000000000000  0.3590739999999997   F   F   F
  0.6000000000000014  0.5000000000000000  0.2886110000000031   F   F   F
  0.7000000000000028  0.3999999999999986  0.2886110000000031   F   F   F
  0.6000000000000014  0.6000000000000014  0.3590739999999997   F   F   F
  0.7000000000000028  0.7000000000000028  0.3590739999999997   F   F   F
  0.6000000000000014  0.7000000000000028  0.2886110000000031   F   F   F
  0.7000000000000028  0.6000000000000014  0.2886110000000031   F   F   F
  0.6000000000000014  0.7999999999999972  0.3590739999999997   F   F   F
  0.7000000000000028  0.8999999999999986  0.3590739999999997   F   F   F
  0.6000000000000014  0.8999999999999986  0.2886110000000031   F   F   F
  0.7000000000000028  0.7999999999999972  0.2886110000000031   F   F   F
  0.7999999999999972  0.0000000000000000  0.3590739999999997   F   F   F
  0.8999999999999986  0.1000000000000014  0.3590739999999997   F   F   F
  0.7999999999999972  0.1000000000000014  0.2886110000000031   F   F   F
  0.8999999999999986  0.0000000000000000  0.2886110000000031   F   F   F
  0.7999999999999972  0.2000000000000028  0.3590739999999997   F   F   F
  0.8999999999999986  0.2999999999999972  0.3590739999999997   F   F   F