Ag                                      
   1.0000000000000000     
    20.0000000000000000    0.0000000000000000    0.0000000000000000
     0.0000000000000000   20.0000000000000000    0.0000000000000000
     0.0000000000000000    0.0000000000000000   20.0000000000000000
   Ag
     6
Direct
  0.4591565050464155  0.3444408836200523  0.5434375208705333
  0.5317131375732060  0.5263695652015628  0.4456274346359450
  0.4681084920027914  0.4736489082049715  0.5546793672111150
  0.5226755582503344  0.3956901565093602  0.4356044481537182
  0.5409249361512138  0.6556129494023111  0.4563868412030843
  0.4773530562060344  0.6043188849717396  0.5642740974105962

  0.00000000E+00  0.00000000E+00  0.00000000E+00
  0.00000000E+00  0.00000000E+00  0.00000000E+00
  0.00000000E+00  0.00000000E+00  0.00000000E+00
  0.00000000E+00  0.00000000E+00  0.00000000E+00
  0.00000000E+00  0.00000000E+00  0.00000000E+00
  0.00000000E+00  0.00000000E+00  0.00000000E+00
