Mg  O                                   
   1.00000000000000     
    21.1388521970183838    0.0000000000000000    0.0000000000000000
     0.0000000000000000   21.1388521970183838    0.0000000000000000
     0.0000000000000000    0.0000000000000000   30.0000000000000000
   Au
    20
Selective dynamics
Direct
  0.5226709647389853  0.4471437492593182  0.6037140096395603   T   T   T
  0.3903824392820852  0.4617678330523347  0.6112410351780042   T   T   T
  0.2620763240464967  0.4764477207292970  0.6097962749381765   T   T   T
  0.1421545602852561  0.4872446275252642  0.5776399040189801   T   T   T
  0.5938872003791005  0.5508450959144326  0.5979409002875116   T   T   T
  0.4671920833569132  0.5631094008338025  0.6096810120731462   T   T   T
  0.3411246800767103  0.5794063673309182  0.6139646583228284   T   T   T
  0.2231060086266510  0.5887155303800071  0.5773759450225882   T   T   T
  0.5638689134282728  0.3287641502855791  0.6057830508126614   T   T   T
  0.4393435339985032  0.3456281215729859  0.6059535911341882   T   T   T
  0.3142020288356449  0.3573995806225057  0.6061886971273083   T   T   T
  0.1885088537311574  0.3724184016069074  0.5946305708415096   T   T   T
  0.6615715041035344  0.6545047592373834  0.5793568623838112   T   T   T
  0.5400091289192872  0.6691760400722941  0.5979781918257814   T   T   T
  0.4188685543923469  0.6842425858497307  0.6109215783147590   T   T   T
  0.3062487212635077  0.6863472550114906  0.5726951697981661   T   T   T
  0.5892908766914786  0.2176104723149308  0.5698016454991830   T   T   T
  0.4807738708666349  0.2247080201491016  0.6107821569588268   T   T   T
  0.3595447986681961  0.2388565226134389  0.5975942795976650   T   T   T
  0.2341318005608244  0.2562859623643376  0.5891614409095567   T   T   T
 
  0.00000000E+00  0.00000000E+00  0.00000000E+00
  0.00000000E+00  0.00000000E+00  0.00000000E+00
  0.00000000E+00  0.00000000E+00  0.00000000E+00
  0.00000000E+00  0.00000000E+00  0.00000000E+00
  0.00000000E+00  0.00000000E+00  0.00000000E+00
  0.00000000E+00  0.00000000E+00  0.00000000E+00
  0.00000000E+00  0.00000000E+00  0.00000000E+00
  0.00000000E+00  0.00000000E+00  0.00000000E+00
  0.00000000E+00  0.00000000E+00  0.00000000E+00
  0.00000000E+00  0.00000000E+00  0.00000000E+00
  0.00000000E+00  0.00000000E+00  0.00000000E+00
  0.00000000E+00  0.00000000E+00  0.00000000E+00
  0.00000000E+00  0.00000000E+00  0.00000000E+00
  0.00000000E+00  0.00000000E+00  0.00000000E+00
  0.00000000E+00  0.00000000E+00  0.00000000E+00
  0.00000000E+00  0.00000000E+00  0.00000000E+00
  0.00000000E+00  0.00000000E+00  0.00000000E+00
  0.00000000E+00  0.00000000E+00  0.00000000E+00
  0.00000000E+00  0.00000000E+00  0.00000000E+00
  0.00000000E+00  0.00000000E+00  0.00000000E+00
