Mg  O                                   
   1.00000000000000     
    21.1388521970183838    0.0000000000000000    0.0000000000000000
     0.0000000000000000   21.1388521970183838    0.0000000000000000
     0.0000000000000000    0.0000000000000000   30.0000000000000000
   Au   Mg   O 
    20   200   200
Selective dynamics
Direct
  0.5248720476676354  0.4472719521136170  0.6039506546517828   T   T   T
  0.3923113278176587  0.4616513921169414  0.6107869952421368   T   T   T
  0.2633930474423209  0.4760885497502940  0.6107937722782566   T   T   T
  0.1417082152947842  0.4878001317828762  0.5809240235004012   T   T   T
  0.5965224678127967  0.5519997675435278  0.5990549841520618   T   T   T
  0.4690706402219433  0.5638579766392624  0.6099450553126928   T   T   T
  0.3424612724788503  0.5795467485929322  0.6151164510345737   T   T   T
  0.2227760378738850  0.5896337857176377  0.5802316698321093   T   T   T
  0.5666424896502136  0.3283824549266470  0.6077840244519805   T   T   T
  0.4413974811128725  0.3448423844900361  0.6056758174350421   T   T   T
  0.3155076694203842  0.3568121610010522  0.6064434191428774   T   T   T
  0.1887107547521509  0.3719252210185502  0.5962148273966079   T   T   T
  0.6638496460168142  0.6570140584375750  0.5803725678059379   T   T   T
  0.5418398103033937  0.6706596796791828  0.6003716376756785   T   T   T
  0.4197112115293251  0.6852604983504094  0.6132180901124613   T   T   T
  0.3058403989613225  0.6881384466680345  0.5755475701255790   T   T   T
  0.5903129488924392  0.2156935630878820  0.5721043976675233   T   T   T
  0.4829127228146106  0.2239064930200669  0.6152917146241137   T   T   T
  0.3614378378611889  0.2377150971058626  0.5986798793143322   T   T   T
  0.2351264250208018  0.2551246310574626  0.5901306080582764   T   T   T
  0.0000001939086047  0.0001038990365174  0.4296756878421775   F   F   F
  0.1000446996660500  0.1001025097054296  0.4298206104047253   F   F   F
  0.9999838694425733  0.0999217628856712  0.4997027579049700   F   F   F
  0.0997297262064052  0.0002163537177040  0.4996824648917411   F   F   F
  0.0001249923270450  0.1999558188943027  0.4297676390140666   F   F   F
  0.1002360770984012  0.2997878564619540  0.4298596470950002   F   F   F
  0.9997554521377765  0.2997145511884867  0.4998300951933246   F   F   F
  0.0996941398578670  0.1998228456245954  0.5000792623991330   F   F   F
  0.9999890470977704  0.3998324422868436  0.4298349559712165   F   F   F
  0.0998873185031002  0.4998130398948177  0.4293707353237792   F   F   F
  0.9982852312236261  0.4997243853555631  0.4999463221515299   F   F   F
  0.0997211414741201  0.3984796318699679  0.5002028668844503   F   F   F
  0.9995887831421939  0.6000308767839257  0.4297682929564317   F   F   F
  0.0994944259948127  0.7003624917663132  0.4296151437946278   F   F   F
  0.9992785697974398  0.7006058107926165  0.4997251347164280   F   F   F
  0.0979068359961133  0.6012063970573891  0.4999748265436352   F   F   F
  0.9997949352240170  0.8002222377362571  0.4296728869270012   F   F   F
  0.0998412988125423  0.9003078678591976  0.4296611379496582   F   F   F
  0.9997701956496172  0.9003473424468353  0.4996048877082586   F   F   F
  0.0992095007753306  0.8010105784886505  0.4996910205884362   F   F   F
  0.1999320116801186  0.0002373618764864  0.4297179020238104   F   F   F
  0.2999894314082781  0.1002468119493045  0.4298910496677735   F   F   F
  0.1999830604430173  0.0995715159898509  0.4999387051145519   F   F   F
  0.2999236995173717  0.0002193317047841  0.4997275140033395   F   F   F
  0.2002278693828572  0.2001207921625152  0.4297422651133900   F   F   F
  0.3002682467821742  0.2999811954599352  0.4297530993862537   F   F   F
  0.2004073535799691  0.3000340046027006  0.5009606838972118   F   F   F
  0.3002916858983795  0.2000633228303812  0.5008295961483711   F   F   F
  0.2003190745077674  0.3993228205851409  0.4294713404525794   F   F   F
  0.3007413806193000  0.4994236114457991  0.4295424489748711   F   F   F
  0.2020894044224022  0.4982313049889839  0.4995023129494243   F   F   F
  0.3008481347708738  0.3994890559999007  0.5006462179131930   F   F   F
  0.1999519839649366  0.6002014908703828  0.4291967258064986   F   F   F
  0.3001823643006034  0.7004080016392962  0.4289574156775657   F   F   F
  0.1975753406611744  0.7023831548064408  0.4995037547726895   F   F   F
  0.3023340722915862  0.5979790202266457  0.4997666661378943   F   F   F
  0.1997903559006673  0.8006155019629304  0.4296096366360018   F   F   F
  0.3000162082384250  0.9005644823258905  0.4295485947371702   F   F   F
  0.1995053537224791  0.9007427509709842  0.4996555833181446   F   F   F
  0.2999993740616560  0.8028896046191178  0.4993502790317450   F   F   F
  0.4000344371548579  0.0001508288177661  0.4297239850312167   F   F   F
  0.4999670393663891  0.1000429695146252  0.4298882685708918   F   F   F
  0.3996903272266437  0.0995680271471642  0.4999807992949812   F   F   F
  0.4998945233296652  0.9997900694004827  0.4997464456451866   F   F   F
  0.3996631021991206  0.2001810599338611  0.4297019019396799   F   F   F
  0.4997997596375825  0.3001517758737009  0.4299623359266107   F   F   F
  0.3999969708641942  0.3001375957057775  0.5011070603279393   F   F   F
  0.4970879888887936  0.1997325141243422  0.5005671868536581   F   F   F
  0.4003328971318183  0.3998435817043031  0.4299272392311124   F   F   F
  0.4999754992449752  0.4998794374022211  0.4299034355731450   F   F   F
  0.4006298349413839  0.4996137138740409  0.5009951734020177   F   F   F
  0.4998393427886469  0.4001144254016396  0.5014314511850273   F   F   F
  0.4006138615605082  0.5999399558802665  0.4298234444404656   F   F   F
  0.5001954348988633  0.6998368551532721  0.4296553532953098   F   F   F
  0.4025893095480484  0.7005521668712476  0.5008949221436225   F   F   F
  0.5001649547196081  0.5995339058084355  0.5008863866374540   F   F   F
  0.4001878864429784  0.8000607657916916  0.4298436638812930   F   F   F
  0.5000445615274032  0.8999480487927158  0.4297282624456571   F   F   F
  0.4002684625391737  0.9004415044138696  0.4997471748515494   F   F   F
  0.5003037789405340  0.8005518190581640  0.5000187939520089   F   F   F
  0.6000987507204414  0.9995706177170547  0.4295478509847754   F   F   F
  0.7003407497995440  0.0997277722695316  0.4297044033663866   F   F   F
  0.6006460707235490  0.0969660623010000  0.4994284742531576   F   F   F
  0.7007283018310133  0.9994988802964002  0.4996521652652177   F   F   F
  0.6001505676074999  0.1999618971452151  0.4288657780560499   F   F   F
  0.7000475426808990  0.3000768980507829  0.4297764817040957   F   F   F
  0.6001725934079474  0.3034964968301423  0.5000722761896554   F   F   F
  0.7032390675884699  0.1995297718177582  0.4993339238230305   F   F   F
  0.5996687837718966  0.4004940789786744  0.4296719960729334   F   F   F
  0.6996355539425494  0.4997200529483408  0.4296833033661116   F   F   F
  0.5995364535039087  0.4998661258264079  0.5009759889194569   F   F   F
  0.7003284813727575  0.4002895293447040  0.4998299960958619   F   F   F
  0.5996007892670292  0.5996494116767295  0.4294755052950237   F   F   F
  0.6998104056161694  0.6997603758720103  0.4294227285742167   F   F   F
  0.5987426402186955  0.6998776664493676  0.5005518001075302   F   F   F
  0.6998692171905319  0.5977353671507899  0.4995851657635555   F   F   F
  0.6000246659798165  0.7998458157883377  0.4298994531002052   F   F   F
  0.7001034672763637  0.8998979428265059  0.4297449025450319   F   F   F
  0.6000982709258054  0.8999486331919684  0.4997191477398957   F   F   F
  0.7000887685546147  0.8010311628726470  0.5002195233910172   F   F   F
  0.8001804570888780  0.9998736227498526  0.4296502086137863   F   F   F
  0.9001836170967010  0.0999391990309988  0.4296813255936343   F   F   F
  0.8006718070002705  0.0993827833005625  0.4996171795823230   F   F   F
  0.9001967552416374  0.9999318431751547  0.4995986110308337   F   F   F
  0.8005164580498416  0.1999398359515538  0.4295037733222671   F   F   F
  0.9001139498175021  0.2999445569439203  0.4297149773770741   F   F   F
  0.8003931770734667  0.3001717752701296  0.4996737626009136   F   F   F
  0.9002636360849934  0.1998254920799809  0.4996469770919632   F   F   F
  0.7999343907969916  0.3999475651558484  0.4297035986134858   F   F   F
  0.8997294793283217  0.4998913398607030  0.4296980514462803   F   F   F
  0.8000587661332688  0.4997325254790184  0.4997692856365816   F   F   F
  0.8998343255609456  0.3996647917426444  0.4997153136892010   F   F   F
  0.7998876980011005  0.5998742666971992  0.4297787877656845   F   F   F
  0.8998596324335892  0.7000592326815607  0.4297250259541556   F   F   F
  0.8009530791540342  0.6999236823519155  0.5000973544937324   F   F   F
  0.8996580991332550  0.6000070417047283  0.4997357093230477   F   F   F
  0.7999608256899720  0.7999587973813931  0.4298788910350950   F   F   F
  0.8999890776582760  0.9000421844849811  0.4296619548258462   F   F   F
  0.8003654279259607  0.9000285388878595  0.4996842216131370   F   F   F
  0.8999409386279424  0.8003607864074667  0.4996953568036062   F   F   F
  0.0000000000000000  0.0000000000000000  0.2886110000000031   F   F   F
  0.1000000000000014  0.1000000000000014  0.2886110000000031   F   F   F
  0.0000000000000000  0.1000000000000014  0.3590739999999997   F   F   F
  0.1000000000000014  0.0000000000000000  0.3590739999999997   F   F   F
  0.0000000000000000  0.2000000000000028  0.2886110000000031   F   F   F
  0.1000000000000014  0.2999999999999972  0.2886110000000031   F   F   F
  0.0000000000000000  0.2999999999999972  0.3590739999999997   F   F   F
  0.1000000000000014  0.2000000000000028  0.3590739999999997   F   F   F
  0.0000000000000000  0.3999999999999986  0.2886110000000031   F   F   F
  0.1000000000000014  0.5000000000000000  0.2886110000000031   F   F   F
  0.0000000000000000  0.5000000000000000  0.3590739999999997   F   F   F
  0.1000000000000014  0.3999999999999986  0.3590739999999997   F   F   F
  0.0000000000000000  0.6000000000000014  0.2886110000000031   F   F   F
  0.1000000000000014  0.7000000000000028  0.2886110000000031   F   F   F
  0.0000000000000000  0.7000000000000028  0.3590739999999997   F   F   F
  0.1000000000000014  0.6000000000000014  0.3590739999999997   F   F   F
  0.0000000000000000  0.7999999999999972  0.2886110000000031   F   F   F
  0.1000000000000014  0.8999999999999986  0.2886110000000031   F   F   F
  0.0000000000000000  0.8999999999999986  0.3590739999999997   F   F   F
  0.1000000000000014  0.7999999999999972  0.3590739999999997   F   F   F
  0.2000000000000028  0.0000000000000000  0.2886110000000031   F   F   F
  0.2999999999999972  0.1000000000000014  0.2886110000000031   F   F   F
  0.2000000000000028  0.1000000000000014  0.3590739999999997   F   F   F
  0.2999999999999972  0.0000000000000000  0.3590739999999997   F   F   F
  0.2000000000000028  0.2000000000000028  0.2886110000000031   F   F   F
  0.2999999999999972  0.2999999999999972  0.2886110000000031   F   F   F
  0.2000000000000028  0.2999999999999972  0.3590739999999997   F   F   F
  0.2999999999999972  0.2000000000000028  0.3590739999999997   F   F   F
  0.2000000000000028  0.3999999999999986  0.2886110000000031   F   F   F
  0.2999999999999972  0.5000000000000000  0.2886110000000031   F   F   F
  0.2000000000000028  0.5000000000000000  0.3590739999999997   F   F   F
  0.2999999999999972  0.3999999999999986  0.3590739999999997   F   F   F
  0.2000000000000028  0.6000000000000014  0.2886110000000031   F   F   F
  0.2999999999999972  0.7000000000000028  0.2886110000000031   F   F   F
  0.2000000000000028  0.7000000000000028  0.3590739999999997   F   F   F
  0.2999999999999972  0.6000000000000014  0.3590739999999997   F   F   F
  0.2000000000000028  0.7999999999999972  0.2886110000000031   F   F   F
  0.2999999999999972  0.8999999999999986  0.2886110000000031   F   F   F
  0.2000000000000028  0.8999999999999986  0.3590739999999997   F   F   F
  0.2999999999999972  0.7999999999999972  0.3590739999999997   F   F   F
  0.3999999999999986  0.0000000000000000  0.2886110000000031   F   F   F
  0.5000000000000000  0.1000000000000014  0.2886110000000031   F   F   F
  0.3999999999999986  0.1000000000000014  0.3590739999999997   F   F   F
  0.5000000000000000  0.0000000000000000  0.3590739999999997   F   F   F
  0.3999999999999986  0.2000000000000028  0.2886110000000031   F   F   F
  0.5000000000000000  0.2999999999999972  0.2886110000000031   F   F   F
  0.3999999999999986  0.2999999999999972  0.3590739999999997   F   F   F
  0.5000000000000000  0.2000000000000028  0.3590739999999997   F   F   F
  0.3999999999999986  0.3999999999999986  0.2886110000000031   F   F   F
  0.5000000000000000  0.5000000000000000  0.2886110000000031   F   F   F
  0.3999999999999986  0.5000000000000000  0.3590739999999997   F   F   F
  0.5000000000000000  0.3999999999999986  0.3590739999999997   F   F   F
  0.3999999999999986  0.6000000000000014  0.2886110000000031   F   F   F
  0.5000000000000000  0.7000000000000028  0.2886110000000031   F   F   F
  0.3999999999999986  0.7000000000000028  0.3590739999999997   F   F   F
  0.5000000000000000  0.6000000000000014  0.3590739999999997   F   F   F
  0.3999999999999986  0.7999999999999972  0.2886110000000031   F   F   F
  0.5000000000000000  0.8999999999999986  0.2886110000000031   F   F   F
  0.3999999999999986  0.8999999999999986  0.3590739999999997   F   F   F
  0.5000000000000000  0.7999999999999972  0.3590739999999997   F   F   F
  0.6000000000000014  0.0000000000000000  0.2886110000000031   F   F   F
  0.7000000000000028  0.1000000000000014  0.2886110000000031   F   F   F
  0.6000000000000014  0.1000000000000014  0.3590739999999997   F   F   F
  0.7000000000000028  0.0000000000000000  0.3590739999999997   F   F   F
  0.6000000000000014  0.2000000000000028  0.2886110000000031   F   F   F
  0.7000000000000028  0.2999999999999972  0.2886110000000031   F   F   F
  0.6000000000000014  0.2999999999999972  0.3590739999999997   F   F   F
  0.7000000000000028  0.2000000000000028  0.3590739999999997   F   F   F
  0.6000000000000014  0.3999999999999986  0.2886110000000031   F   F   F
  0.7000000000000028  0.5000000000000000  0.2886110000000031   F   F   F
  0.6000000000000014  0.5000000000000000  0.3590739999999997   F   F   F
  0.7000000000000028  0.3999999999999986  0.3590739999999997   F   F   F
  0.6000000000000014  0.6000000000000014  0.2886110000000031   F   F   F
  0.7000000000000028  0.7000000000000028  0.2886110000000031   F   F   F
  0.6000000000000014  0.7000000000000028  0.3590739999999997   F   F   F
  0.7000000000000028  0.6000000000000014  0.3590739999999997   F   F   F
  0.6000000000000014  0.7999999999999972  0.2886110000000031   F   F   F
  0.7000000000000028  0.8999999999999986  0.2886110000000031   F   F   F
  0.6000000000000014  0.8999999999999986  0.3590739999999997   F   F   F
  0.7000000000000028  0.7999999999999972  0.3590739999999997   F   F   F
  0.7999999999999972  0.0000000000000000  0.2886110000000031   F   F   F
  0.8999999999999986  0.1000000000000014  0.2886110000000031   F   F   F
  0.7999999999999972  0.1000000000000014  0.3590739999999997   F   F   F
  0.8999999999999986  0.0000000000000000  0.3590739999999997   F   F   F
  0.7999999999999972  0.2000000000000028  0.2886110000000031   F   F   F
  0.8999999999999986  0.2999999999999972  0.2886110000000031   F   F   F
  0.7999999999999972  0.2999999999999972  0.3590739999999997   F   F   F
  0.8999999999999986  0.2000000000000028  0.3590739999999997   F   F   F
  0.7999999999999972  0.3999999999999986  0.2886110000000031   F   F   F
  0.8999999999999986  0.5000000000000000  0.2886110000000031   F   F   F
  0.7999999999999972  0.5000000000000000  0.3590739999999997   F   F   F
  0.8999999999999986  0.3999999999999986  0.3590739999999997   F   F   F
  0.7999999999999972  0.6000000000000014  0.2886110000000031   F   F   F
  0.8999999999999986  0.7000000000000028  0.2886110000000031   F   F   F
  0.7999999999999972  0.7000000000000028  0.3590739999999997   F   F   F
  0.8999999999999986  0.6000000000000014  0.3590739999999997   F   F   F
  0.7999999999999972  0.7999999999999972  0.2886110000000031   F   F   F
  0.8999999999999986  0.8999999999999986  0.2886110000000031   F   F   F
  0.7999999999999972  0.8999999999999986  0.3590739999999997   F   F   F
  0.8999999999999986  0.7999999999999972  0.3590739999999997   F   F   F
  0.9998698811451519  0.9999800581968756  0.5007834850344963   F   F   F
  0.0997877117426995  0.0998663937038842  0.5009734872031473   F   F   F
  0.0000137432464768  0.0999835260106750  0.4294993701712002   F   F   F
  0.0998970629289886  0.0000396810116854  0.4294855234629793   F   F   F
  0.9998659685843450  0.1998505868965239  0.5009025162897771   F   F   F
  0.0995807672495985  0.2997279230456726  0.5009093494822139   F   F   F
  0.0000909959694226  0.3000174840652079  0.4295637671638701   F   F   F
  0.1000379321826017  0.1999179931297377  0.4297010448665119   F   F   F
  0.9998568739780112  0.4000548881456609  0.5009538348063387   F   F   F
  0.0983649981279839  0.5006859018847507  0.5025025384209556   F   F   F
  0.0002468400039035  0.5001542165698893  0.4297887837334073   F   F   F
  0.0997840169244384  0.4004791305351603  0.4297576960593474   F   F   F
  0.9994636156234264  0.6001930996424676  0.5009510524976761   F   F   F
  0.0992312141701532  0.7005557785134542  0.5008244385871023   F   F   F
  0.9999222551106044  0.6999961338433209  0.4295162624276685   F   F   F
  0.1000225662672563  0.5998655767216974  0.4299811889335103   F   F   F
  0.9997400864592194  0.8002702710711276  0.5007819801404665   F   F   F
  0.0996273104092609  0.9002696463591562  0.5007710695123251   F   F   F
  0.9999224708804206  0.9000096695190649  0.4294422317564468   F   F   F
  0.0998588155079645  0.8000800517601050  0.4294972736209886   F   F   F
  0.1996969477509793  0.9999537686868791  0.5008313381972229   F   F   F
  0.2998381686825482  0.0995930793031405  0.5009208190213101   F   F   F
  0.1998542573401068  0.1000264995874574  0.4296345702521975   F   F   F
  0.2999316958875582  0.0000892406996371  0.4294799007865606   F   F   F
  0.1996645969340207  0.1992411041686566  0.5014328748178585   F   F   F
  0.3004748139989033  0.3001844309687058  0.4992283273459819   F   F   F
  0.1996861101072795  0.2996191292188257  0.4295537889465990   F   F   F
  0.2997206448868326  0.1997031467858932  0.4295957057097510   F   F   F
  0.1998476484808762  0.3998324640558906  0.4988649402231573   F   F   F
  0.3001973797143478  0.4999021079692341  0.4996110117128438   F   F   F
  0.1994318006663249  0.5007258125403879  0.4298761528736534   F   F   F
  0.2999442817569289  0.4001265540435597  0.4292162832889019   F   F   F
  0.1984090959283904  0.6015947606464778  0.5011837637304097   F   F   F
  0.2981306206645655  0.7027375729950549  0.5001898279902051   F   F   F
  0.1997931989032864  0.7000638279149882  0.4297372584817651   F   F   F
  0.2993534019360879  0.6006896136671926  0.4299737064297489   F   F   F
  0.1995045498277221  0.8008377702927447  0.5007069486659788   F   F   F
  0.2998228870674424  0.9006831236308912  0.5006743802345426   F   F   F
  0.1998562741989076  0.9001679850210706  0.4294549769994163   F   F   F
  0.2997099019234497  0.8001886463863741  0.4295033312837759   F   F   F
  0.4001389303414271  0.9999493468473375  0.5008271728165070   F   F   F
  0.5006552682991270  0.0998417598258428  0.5008110607095446   F   F   F
  0.4001252798485169  0.0998382396134119  0.4295392828487650   F   F   F
  0.5002156252822161  0.9999340973323001  0.4295375368972927   F   F   F
  0.3996089346040321  0.1991647612911081  0.5000600710868710   F   F   F
  0.5005222279308512  0.2992463987517340  0.4997816353227478   F   F   F
  0.4002026920042212  0.2996991294866689  0.4294184000695793   F   F   F
  0.5007773746318023  0.1996148841393079  0.4299621650933503   F   F   F
  0.4001801680761048  0.3999806301065831  0.5002408422824161   F   F   F
  0.4996598156596832  0.5000690747759933  0.4999856499801894   F   F   F
  0.3998979110752146  0.5002085556976468  0.4294279506923360   F   F   F
  0.5001920661372310  0.3998614643828162  0.4295608331578080   F   F   F
  0.3999377880259232  0.6007208171886589  0.4999853743213052   F   F   F
  0.5002587565482557  0.7006815590034634  0.5000281534799029   F   F   F
  0.3994464073828183  0.7003360286153821  0.4298261868277891   F   F   F
  0.4997657428831417  0.6003453593708983  0.4292412907456011   F   F   F
  0.3997170356817819  0.8004423655441428  0.5007212293878638   F   F   F
  0.5001172836971719  0.9001019053556121  0.5008263659689831   F   F   F
  0.3999528409609354  0.9000877676937691  0.4295135912174857   F   F   F
  0.5000338518787828  0.8001135272370590  0.4295321346238765   F   F   F
  0.6003607853436108  0.9993110179114453  0.5007025301065227   F   F   F
  0.7007850276116656  0.0993291498740732  0.5007513387246618   F   F   F
  0.6003492005983730  0.1000089770314077  0.4296461864753311   F   F   F
  0.7001609922662979  0.9998256636944092  0.4294600407253029   F   F   F
  0.6035375118724318  0.1968716733606186  0.5010151453173606   F   F   F
  0.7002985320615522  0.2995964071427295  0.5006738151662944   F   F   F
  0.6003607714138397  0.2993309814912521  0.4298726952308982   F   F   F
  0.7001269047812002  0.1997430422964257  0.4295839773568986   F   F   F
  0.6005510108042031  0.4005759638806765  0.5001839298521844   F   F   F
  0.7005049069309024  0.4994601713029283  0.5004747425156069   F   F   F
  0.6001898293444157  0.4998111066367841  0.4292397963409442   F   F   F
  0.7002062154304269  0.3997547225659090  0.4294380674273270   F   F   F
  0.5996529173179823  0.5995946195964663  0.4981815531868961   F   F   F
  0.7010614061373062  0.7004204386889938  0.5033123937948574   F   F   F
  0.6006185654792873  0.7003247058793676  0.4296989944825498   F   F   F
  0.7003843041728715  0.6003405370656907  0.4295852302462180   F   F   F
  0.6003559972831454  0.8002792087121904  0.5008315303053124   F   F   F
  0.7003611671178689  0.9000866402737060  0.5008959840610672   F   F   F
  0.6002095977327073  0.8998617663114246  0.4294755038675078   F   F   F
  0.7001949386922774  0.7995538805571982  0.4299072101169870   F   F   F
  0.8004185315909425  0.9997029686487693  0.5007474556456799   F   F   F
  0.9001552461950126  0.0997923349143619  0.5007857796379511   F   F   F
  0.8002106979714583  0.0998983009859060  0.4294452076562365   F   F   F
  0.9000570383936406  0.9999200446213692  0.4294353863571985   F   F   F
  0.8008240126783548  0.1997646288612174  0.5006675888127603   F   F   F
  0.9001109194313202  0.2998959877030316  0.5008167815769937   F   F   F
  0.8001769913860457  0.2998355696547250  0.4294938393585994   F   F   F
  0.9001871790554148  0.1999367406702035  0.4294429107098381   F   F   F
  0.8002600217677198  0.3997916153326315  0.5007880049513957   F   F   F
  0.8997894122170464  0.4999335762260344  0.5008586764589609   F   F   F
  0.8000973740373141  0.4999541227689122  0.4294816925956582   F   F   F
  0.9001206044397421  0.4000299502242299  0.4295245412635396   F   F   F
  0.8002193206696475  0.5999730462917654  0.5007624990868891   F   F   F
  0.9000528172841413  0.7001565636064484  0.5008873923812089   F   F   F
  0.7996854702148823  0.7000298508453824  0.4298442638351716   F   F   F
  0.8999956202262425  0.6000387706191788  0.4295229206652920   F   F   F
  0.8001735986500478  0.8000577858829487  0.5010338868681998   F   F   F
  0.9000905675452984  0.9000200847744892  0.5007761557633117   F   F   F
  0.8000496908509689  0.8998633212327078  0.4294942028538671   F   F   F
  0.8999458455228364  0.7999213900270234  0.4295075615740487   F   F   F
  0.0000000000000000  0.0000000000000000  0.3590739999999997   F   F   F
  0.1000000000000014  0.1000000000000014  0.3590739999999997   F   F   F
  0.0000000000000000  0.1000000000000014  0.2886110000000031   F   F   F
  0.1000000000000014  0.0000000000000000  0.2886110000000031   F   F   F
  0.0000000000000000  0.2000000000000028  0.3590739999999997   F   F   F
  0.1000000000000014  0.2999999999999972  0.3590739999999997   F   F   F
  0.0000000000000000  0.2999999999999972  0.2886110000000031   F   F   F
  0.1000000000000014  0.2000000000000028  0.2886110000000031   F   F   F
  0.0000000000000000  0.3999999999999986  0.3590739999999997   F   F   F
  0.1000000000000014  0.5000000000000000  0.3590739999999997   F   F   F
  0.0000000000000000  0.5000000000000000  0.2886110000000031   F   F   F
  0.1000000000000014  0.3999999999999986  0.2886110000000031   F   F   F
  0.0000000000000000  0.6000000000000014  0.3590739999999997   F   F   F
  0.1000000000000014  0.7000000000000028  0.3590739999999997   F   F   F
  0.0000000000000000  0.7000000000000028  0.2886110000000031   F   F   F
  0.1000000000000014  0.6000000000000014  0.2886110000000031   F   F   F
  0.0000000000000000  0.7999999999999972  0.3590739999999997   F   F   F
  0.1000000000000014  0.8999999999999986  0.3590739999999997   F   F   F
  0.0000000000000000  0.8999999999999986  0.2886110000000031   F   F   F
  0.1000000000000014  0.7999999999999972  0.2886110000000031   F   F   F
  0.2000000000000028  0.0000000000000000  0.3590739999999997   F   F   F
  0.2999999999999972  0.1000000000000014  0.3590739999999997   F   F   F
  0.2000000000000028  0.1000000000000014  0.2886110000000031   F   F   F
  0.2999999999999972  0.0000000000000000  0.2886110000000031   F   F   F
  0.2000000000000028  0.2000000000000028  0.3590739999999997   F   F   F
  0.2999999999999972  0.2999999999999972  0.3590739999999997   F   F   F
  0.2000000000000028  0.2999999999999972  0.2886110000000031   F   F   F
  0.2999999999999972  0.2000000000000028  0.2886110000000031   F   F   F
  0.2000000000000028  0.3999999999999986  0.3590739999999997   F   F   F
  0.2999999999999972  0.5000000000000000  0.3590739999999997   F   F   F
  0.2000000000000028  0.5000000000000000  0.2886110000000031   F   F   F
  0.2999999999999972  0.3999999999999986  0.2886110000000031   F   F   F
  0.2000000000000028  0.6000000000000014  0.3590739999999997   F   F   F
  0.2999999999999972  0.7000000000000028  0.3590739999999997   F   F   F
  0.2000000000000028  0.7000000000000028  0.2886110000000031   F   F   F
  0.2999999999999972  0.6000000000000014  0.2886110000000031   F   F   F
  0.2000000000000028  0.7999999999999972  0.3590739999999997   F   F   F
  0.2999999999999972  0.8999999999999986  0.3590739999999997   F   F   F
  0.2000000000000028  0.8999999999999986  0.2886110000000031   F   F   F
  0.2999999999999972  0.7999999999999972  0.2886110000000031   F   F   F
  0.3999999999999986  0.0000000000000000  0.3590739999999997   F   F   F
  0.5000000000000000  0.1000000000000014  0.3590739999999997   F   F   F
  0.3999999999999986  0.1000000000000014  0.2886110000000031   F   F   F
  0.5000000000000000  0.0000000000000000  0.2886110000000031   F   F   F
  0.3999999999999986  0.2000000000000028  0.3590739999999997   F   F   F
  0.5000000000000000  0.2999999999999972  0.3590739999999997   F   F   F
  0.3999999999999986  0.2999999999999972  0.2886110000000031   F   F   F
  0.5000000000000000  0.2000000000000028  0.2886110000000031   F   F   F
  0.3999999999999986  0.3999999999999986  0.3590739999999997   F   F   F
  0.5000000000000000  0.5000000000000000  0.3590739999999997   F   F   F
  0.3999999999999986  0.5000000000000000  0.2886110000000031   F   F   F
  0.5000000000000000  0.3999999999999986  0.2886110000000031   F   F   F
  0.3999999999999986  0.6000000000000014  0.3590739999999997   F   F   F
  0.5000000000000000  0.7000000000000028  0.3590739999999997   F   F   F
  0.3999999999999986  0.7000000000000028  0.2886110000000031   F   F   F
  0.5000000000000000  0.6000000000000014  0.2886110000000031   F   F   F
  0.3999999999999986  0.7999999999999972  0.3590739999999997   F   F   F
  0.5000000000000000  0.8999999999999986  0.3590739999999997   F   F   F
  0.3999999999999986  0.8999999999999986  0.2886110000000031   F   F   F
  0.5000000000000000  0.7999999999999972  0.2886110000000031   F   F   F
  0.6000000000000014  0.0000000000000000  0.3590739999999997   F   F   F
  0.7000000000000028  0.1000000000000014  0.3590739999999997   F   F   F
  0.6000000000000014  0.1000000000000014  0.2886110000000031   F   F   F
  0.7000000000000028  0.0000000000000000  0.2886110000000031   F   F   F
  0.6000000000000014  0.2000000000000028  0.3590739999999997   F   F   F
  0.7000000000000028  0.2999999999999972  0.3590739999999997   F   F   F
  0.6000000000000014  0.2999999999999972  0.2886110000000031   F   F   F
  0.7000000000000028  0.2000000000000028  0.2886110000000031   F   F   F
  0.6000000000000014  0.3999999999999986  0.3590739999999997   F   F   F
  0.7000000000000028  0.5000000000000000  0.3590739999999997   F   F   F
  0.6000000000000014  0.5000000000000000  0.2886110000000031   F   F   F
  0.7000000000000028  0.3999999999999986  0.2886110000000031   F   F   F
  0.6000000000000014  0.6000000000000014  0.3590739999999997   F   F   F
  0.7000000000000028  0.7000000000000028  0.3590739999999997   F   F   F
  0.6000000000000014  0.7000000000000028  0.2886110000000031   F   F   F
  0.7000000000000028  0.6000000000000014  0.2886110000000031   F   F   F
  0.6000000000000014  0.7999999999999972  0.3590739999999997   F   F   F
  0.7000000000000028  0.8999999999999986  0.3590739999999997   F   F   F
  0.6000000000000014  0.8999999999999986  0.2886110000000031   F   F   F
  0.7000000000000028  0.7999999999999972  0.2886110000000031   F   F   F
  0.7999999999999972  0.0000000000000000  0.3590739999999997   F   F   F
  0.8999999999999986  0.1000000000000014  0.3590739999999997   F   F   F
  0.7999999999999972  0.1000000000000014  0.2886110000000031   F   F   F
  0.8999999999999986  0.0000000000000000  0.2886110000000031   F   F   F
  0.7999999999999972  0.2000000000000028  0.3590739999999997   F   F   F
  0.8999999999999986  0.2999999999999972  0.3590739999999997   F   F   F