Mg  O                                   
   1.0000000000000000     
    21.1388521970183838    0.0000000000000000    0.0000000000000000
     0.0000000000000000   21.1388521970183838    0.0000000000000000
     0.0000000000000000    0.0000000000000000   30.0000000000000000
   Au   Mg   O 
    20   200   200
Selective dynamics
Direct
  0.5248720476676374  0.4472719521136159  0.6039506546517831   T   T   T
  0.3923113278176599  0.4616513921169428  0.6107869952421380   T   T   T
  0.2633930474423244  0.4760885497502946  0.6107937722782594   T   T   T
  0.1417082152947849  0.4878001317828763  0.5809240235004038   T   T   T
  0.5965224678127978  0.5519997675435278  0.5990549841520645   T   T   T
  0.4690706402219464  0.5638579766392614  0.6099450553126901   T   T   T
  0.3424612724788488  0.5795467485929299  0.6151164510345739   T   T   T
  0.2227760378738869  0.5896337857176379  0.5802316698321098   T   T   T
  0.5666424896502107  0.3283824549266455  0.6077840244519817   T   T   T
  0.4413974811128712  0.3448423844900376  0.6056758174350437   T   T   T
  0.3155076694203869  0.3568121610010538  0.6064434191428757   T   T   T
  0.1887107547521476  0.3719252210185517  0.5962148273966086   T   T   T
  0.6638496460168106  0.6570140584375758  0.5803725678059363   T   T   T
  0.5418398103033939  0.6706596796791835  0.6003716376756772   T   T   T
  0.4197112115293263  0.6852604983504085  0.6132180901124591   T   T   T
  0.3058403989613240  0.6881384466680366  0.5755475701255803   T   T   T
  0.5903129488924386  0.2156935630878828  0.5721043976675245   T   T   T
  0.4829127228146081  0.2239064930200662  0.6152917146241157   T   T   T
  0.3614378378611872  0.2377150971058617  0.5986798793143334   T   T   T
  0.2351264250208038  0.2551246310574612  0.5906306080582776   T   T   T
  0.0000001939086050  0.0001038990365169  0.4296756878421804   F   F   F
  0.1000446996660490  0.1001025097054280  0.4298206104047226   F   F   F
  0.9999838694425734  0.0999217628856686  0.4997027579049698   F   F   F
  0.0997297262064044  0.0002163537177056  0.4996824648917394   F   F   F
  0.0001249923270467  0.1999558188942994  0.4297676390140646   F   F   F
  0.1002360770983981  0.2997878564619549  0.4298596470949977   F   F   F
  0.9997554521377735  0.2997145511884898  0.4998300951933246   F   F   F
  0.0996941398578652  0.1998228456245956  0.5000792623991325   F   F   F
  0.9999890470977723  0.3998324422868442  0.4298349559712163   F   F   F
  0.0998873185030996  0.4998130398948149  0.4293707353237772   F   F   F
  0.9982852312236228  0.4997243853555635  0.4999463221515269   F   F   F
  0.0997211414741185  0.3984796318699702  0.5002028668844524   F   F   F
  0.9995887831421914  0.6000308767839279  0.4297682929564310   F   F   F
  0.0994944259948108  0.7003624917663158  0.4296151437946272   F   F   F
  0.9992785697974377  0.7006058107926190  0.4997251347164310   F   F   F
  0.0979068359961105  0.6012063970573893  0.4999748265436345   F   F   F
  0.9997949352240179  0.8002222377362570  0.4296728869270012   F   F   F
  0.0998412988125424  0.9003078678591966  0.4296611379496617   F   F   F
  0.9997701956496202  0.9003473424468389  0.4996048877082588   F   F   F
  0.0992095007753331  0.8010105784886531  0.4996910205884356   F   F   F
  0.1999320116801202  0.0002373618764843  0.4297179020238098   F   F   F
  0.2999894314082772  0.1002468119493069  0.4298910496677730   F   F   F
  0.1999830604430144  0.0995715159898479  0.4999387051145500   F   F   F
  0.2999236995173696  0.0002193317047874  0.4997275140033406   F   F   F
  0.2002278693828555  0.2001207921625117  0.4297422651133891   F   F   F
  0.3002682467821760  0.2999811954599358  0.4297530993862503   F   F   F
  0.2004073535799665  0.3000340046026974  0.5009606838972116   F   F   F
  0.3002916858983800  0.2000633228303790  0.5008295961483725   F   F   F
  0.2003190745077679  0.3993228205851436  0.4294713404525768   F   F   F
  0.3007413806193020  0.4994236114457981  0.4295424489748728   F   F   F
  0.2020894044224057  0.4982313049889832  0.4995023129494215   F   F   F
  0.3008481347708767  0.3994890559999036  0.5006462179131931   F   F   F
  0.1999519839649333  0.6002014908703848  0.4291967258064957   F   F   F
  0.3001823643006007  0.7004080016392994  0.4289574156775635   F   F   F
  0.1975753406611739  0.7023831548064405  0.4995037547726908   F   F   F
  0.3023340722915855  0.5979790202266481  0.4997666661378912   F   F   F
  0.1997903559006692  0.8006155019629294  0.4296096366360015   F   F   F
  0.3000162082384266  0.9005644823258921  0.4295485947371697   F   F   F
  0.1995053537224789  0.9007427509709852  0.4996555833181454   F   F   F
  0.2999993740616534  0.8028896046191175  0.4993502790317440   F   F   F
  0.4000344371548613  0.0001508288177657  0.4297239850312171   F   F   F
  0.4999670393663884  0.1000429695146267  0.4298882685708942   F   F   F
  0.3996903272266439  0.0995680271471639  0.4999807992949818   F   F   F
  0.4998945233296673  0.9997900694004804  0.4997464456451869   F   F   F
  0.3996631021991224  0.2001810599338578  0.4297019019396822   F   F   F
  0.4997997596375817  0.3001517758737000  0.4299623359266138   F   F   F
  0.3999969708641959  0.3001375957057746  0.5011070603279361   F   F   F
  0.4970879888887971  0.1997325141243437  0.5005671868536590   F   F   F
  0.4003328971318151  0.3998435817043009  0.4299272392311126   F   F   F
  0.4999754992449767  0.4998794374022190  0.4299034355731456   F   F   F
  0.4006298349413805  0.4996137138740416  0.5009951734020176   F   F   F
  0.4998393427886476  0.4001144254016365  0.5014314511850307   F   F   F
  0.4006138615605080  0.5999399558802657  0.4298234444404669   F   F   F
  0.5001954348988661  0.6998368551532749  0.4296553532953115   F   F   F
  0.4025893095480498  0.7005521668712497  0.5008949221436254   F   F   F
  0.5001649547196084  0.5995339058084328  0.5008863866374547   F   F   F
  0.4001878864429783  0.8000607657916888  0.4298436638812897   F   F   F
  0.5000445615274042  0.8999480487927125  0.4297282624456568   F   F   F
  0.4002684625391763  0.9004415044138719  0.4997471748515472   F   F   F
  0.5003037789405337  0.8005518190581613  0.5000187939520111   F   F   F
  0.6000987507204435  0.9995706177170530  0.4295478509847771   F   F   F
  0.7003407497995472  0.0997277722695314  0.4297044033663877   F   F   F
  0.6006460707235524  0.0969660623010018  0.4994284742531591   F   F   F
  0.7007283018310150  0.9994988802964034  0.4996521652652146   F   F   F
  0.6001505676074987  0.1999618971452186  0.4288657780560500   F   F   F
  0.7000475426809021  0.3000768980507794  0.4297764817040942   F   F   F
  0.6001725934079490  0.3034964968301428  0.5000722761896539   F   F   F
  0.7032390675884707  0.1995297718177562  0.4993339238230320   F   F   F
  0.5996687837718954  0.4004940789786777  0.4296719960729321   F   F   F
  0.6996355539425495  0.4997200529483394  0.4296833033661150   F   F   F
  0.5995364535039088  0.4998661258264056  0.5009759889194558   F   F   F
  0.7003284813727605  0.4002895293447029  0.4998299960958644   F   F   F
  0.5996007892670271  0.5996494116767305  0.4294755052950210   F   F   F
  0.6998104056161696  0.6997603758720097  0.4294227285742184   F   F   F
  0.5987426402186924  0.6998776664493693  0.5005518001075325   F   F   F
  0.6998692171905321  0.5977353671507891  0.4995851657635562   F   F   F
  0.6000246659798164  0.7998458157883371  0.4298994531002026   F   F   F
  0.7001034672763625  0.8998979428265040  0.4297449025450316   F   F   F
  0.6000982709258077  0.8999486331919668  0.4997191477398921   F   F   F
  0.7000887685546171  0.8010311628726452  0.5002195233910168   F   F   F
  0.8001804570888799  0.9998736227498531  0.4296502086137853   F   F   F
  0.9001836170967018  0.0999391990310021  0.4296813255936323   F   F   F
  0.8006718070002720  0.0993827833005623  0.4996171795823205   F   F   F
  0.9001967552416404  0.9999318431751537  0.4995986110308330   F   F   F
  0.8005164580498447  0.1999398359515504  0.4295037733222699   F   F   F
  0.9001139498175023  0.2999445569439206  0.4297149773770747   F   F   F
  0.8003931770734656  0.3001717752701262  0.4996737626009141   F   F   F
  0.9002636360849904  0.1998254920799792  0.4996469770919597   F   F   F
  0.7999343907969916  0.3999475651558466  0.4297035986134845   F   F   F
  0.8997294793283206  0.4998913398606999  0.4296980514462800   F   F   F
  0.8000587661332719  0.4997325254790194  0.4997692856365810   F   F   F
  0.8998343255609488  0.3996647917426459  0.4997153136892009   F   F   F
  0.7998876980010985  0.5998742666972025  0.4297787877656863   F   F   F
  0.8998596324335917  0.7000592326815588  0.4297250259541581   F   F   F
  0.8009530791540357  0.6999236823519169  0.5000973544937294   F   F   F
  0.8996580991332555  0.6000070417047294  0.4997357093230501   F   F   F
  0.7999608256899687  0.7999587973813911  0.4298788910350935   F   F   F
  0.8999890776582750  0.9000421844849794  0.4296619548258458   F   F   F
  0.8003654279259602  0.9000285388878581  0.4996842216131358   F   F   F
  0.8999409386279436  0.8003607864074685  0.4996953568036036   F   F   F
  0.0000000000000000  0.0000000000000000  0.2886110000000031   F   F   F
  0.1000000000000014  0.1000000000000014  0.2886110000000031   F   F   F
  0.0000000000000000  0.1000000000000014  0.3590739999999997   F   F   F
  0.1000000000000014  0.0000000000000000  0.3590739999999997   F   F   F
  0.0000000000000000  0.2000000000000028  0.2886110000000031   F   F   F
  0.1000000000000014  0.2999999999999972  0.2886110000000031   F   F   F
  0.0000000000000000  0.2999999999999972  0.3590739999999997   F   F   F
  0.1000000000000014  0.2000000000000028  0.3590739999999997   F   F   F
  0.0000000000000000  0.3999999999999986  0.2886110000000031   F   F   F
  0.1000000000000014  0.5000000000000000  0.2886110000000031   F   F   F
  0.0000000000000000  0.5000000000000000  0.3590739999999997   F   F   F
  0.1000000000000014  0.3999999999999986  0.3590739999999997   F   F   F
  0.0000000000000000  0.6000000000000014  0.2886110000000031   F   F   F
  0.1000000000000014  0.7000000000000028  0.2886110000000031   F   F   F
  0.0000000000000000  0.7000000000000028  0.3590739999999997   F   F   F
  0.1000000000000014  0.6000000000000014  0.3590739999999997   F   F   F
  0.0000000000000000  0.7999999999999972  0.2886110000000031   F   F   F
  0.1000000000000014  0.8999999999999986  0.2886110000000031   F   F   F
  0.0000000000000000  0.8999999999999986  0.3590739999999997   F   F   F
  0.1000000000000014  0.7999999999999972  0.3590739999999997   F   F   F
  0.2000000000000028  0.0000000000000000  0.2886110000000031   F   F   F
  0.2999999999999972  0.1000000000000014  0.2886110000000031   F   F   F
  0.2000000000000028  0.1000000000000014  0.3590739999999997   F   F   F
  0.2999999999999972  0.0000000000000000  0.3590739999999997   F   F   F
  0.2000000000000028  0.2000000000000028  0.2886110000000031   F   F   F
  0.2999999999999972  0.2999999999999972  0.2886110000000031   F   F   F
  0.2000000000000028  0.2999999999999972  0.3590739999999997   F   F   F
  0.2999999999999972  0.2000000000000028  0.3590739999999997   F   F   F
  0.2000000000000028  0.3999999999999986  0.2886110000000031   F   F   F
  0.2999999999999972  0.5000000000000000  0.2886110000000031   F   F   F
  0.2000000000000028  0.5000000000000000  0.3590739999999997   F   F   F
  0.2999999999999972  0.3999999999999986  0.3590739999999997   F   F   F
  0.2000000000000028  0.6000000000000014  0.2886110000000031   F   F   F
  0.2999999999999972  0.7000000000000028  0.2886110000000031   F   F   F
  0.2000000000000028  0.7000000000000028  0.3590739999999997   F   F   F
  0.2999999999999972  0.6000000000000014  0.3590739999999997   F   F   F
  0.2000000000000028  0.7999999999999972  0.2886110000000031   F   F   F
  0.2999999999999972  0.8999999999999986  0.2886110000000031   F   F   F
  0.2000000000000028  0.8999999999999986  0.3590739999999997   F   F   F
  0.2999999999999972  0.7999999999999972  0.3590739999999997   F   F   F
  0.3999999999999986  0.0000000000000000  0.2886110000000031   F   F   F
  0.5000000000000000  0.1000000000000014  0.2886110000000031   F   F   F
  0.3999999999999986  0.1000000000000014  0.3590739999999997   F   F   F
  0.5000000000000000  0.0000000000000000  0.3590739999999997   F   F   F
  0.3999999999999986  0.2000000000000028  0.2886110000000031   F   F   F
  0.5000000000000000  0.2999999999999972  0.2886110000000031   F   F   F
  0.3999999999999986  0.2999999999999972  0.3590739999999997   F   F   F
  0.5000000000000000  0.2000000000000028  0.3590739999999997   F   F   F
  0.3999999999999986  0.3999999999999986  0.2886110000000031   F   F   F
  0.5000000000000000  0.5000000000000000  0.2886110000000031   F   F   F
  0.3999999999999986  0.5000000000000000  0.3590739999999997   F   F   F
  0.5000000000000000  0.3999999999999986  0.3590739999999997   F   F   F
  0.3999999999999986  0.6000000000000014  0.2886110000000031   F   F   F
  0.5000000000000000  0.7000000000000028  0.2886110000000031   F   F   F
  0.3999999999999986  0.7000000000000028  0.3590739999999997   F   F   F
  0.5000000000000000  0.6000000000000014  0.3590739999999997   F   F   F
  0.3999999999999986  0.7999999999999972  0.2886110000000031   F   F   F
  0.5000000000000000  0.8999999999999986  0.2886110000000031   F   F   F
  0.3999999999999986  0.8999999999999986  0.3590739999999997   F   F   F
  0.5000000000000000  0.7999999999999972  0.3590739999999997   F   F   F
  0.6000000000000014  0.0000000000000000  0.2886110000000031   F   F   F
  0.7000000000000028  0.1000000000000014  0.2886110000000031   F   F   F
  0.6000000000000014  0.1000000000000014  0.3590739999999997   F   F   F
  0.7000000000000028  0.0000000000000000  0.3590739999999997   F   F   F
  0.6000000000000014  0.2000000000000028  0.2886110000000031   F   F   F
  0.7000000000000028  0.2999999999999972  0.2886110000000031   F   F   F
  0.6000000000000014  0.2999999999999972  0.3590739999999997   F   F   F
  0.7000000000000028  0.2000000000000028  0.3590739999999997   F   F   F
  0.6000000000000014  0.3999999999999986  0.2886110000000031   F   F   F
  0.7000000000000028  0.5000000000000000  0.2886110000000031   F   F   F
  0.6000000000000014  0.5000000000000000  0.3590739999999997   F   F   F
  0.7000000000000028  0.3999999999999986  0.3590739999999997   F   F   F
  0.6000000000000014  0.6000000000000014  0.2886110000000031   F   F   F
  0.7000000000000028  0.7000000000000028  0.2886110000000031   F   F   F
  0.6000000000000014  0.7000000000000028  0.3590739999999997   F   F   F
  0.7000000000000028  0.6000000000000014  0.3590739999999997   F   F   F
  0.6000000000000014  0.7999999999999972  0.2886110000000031   F   F   F
  0.7000000000000028  0.8999999999999986  0.2886110000000031   F   F   F
  0.6000000000000014  0.8999999999999986  0.3590739999999997   F   F   F
  0.7000000000000028  0.7999999999999972  0.3590739999999997   F   F   F
  0.7999999999999972  0.0000000000000000  0.2886110000000031   F   F   F
  0.8999999999999986  0.1000000000000014  0.2886110000000031   F   F   F
  0.7999999999999972  0.1000000000000014  0.3590739999999997   F   F   F
  0.8999999999999986  0.0000000000000000  0.3590739999999997   F   F   F
  0.7999999999999972  0.2000000000000028  0.2886110000000031   F   F   F
  0.8999999999999986  0.2999999999999972  0.2886110000000031   F   F   F
  0.7999999999999972  0.2999999999999972  0.3590739999999997   F   F   F
  0.8999999999999986  0.2000000000000028  0.3590739999999997   F   F   F
  0.7999999999999972  0.3999999999999986  0.2886110000000031   F   F   F
  0.8999999999999986  0.5000000000000000  0.2886110000000031   F   F   F
  0.7999999999999972  0.5000000000000000  0.3590739999999997   F   F   F
  0.8999999999999986  0.3999999999999986  0.3590739999999997   F   F   F
  0.7999999999999972  0.6000000000000014  0.2886110000000031   F   F   F
  0.8999999999999986  0.7000000000000028  0.2886110000000031   F   F   F
  0.7999999999999972  0.7000000000000028  0.3590739999999997   F   F   F
  0.8999999999999986  0.6000000000000014  0.3590739999999997   F   F   F
  0.7999999999999972  0.7999999999999972  0.2886110000000031   F   F   F
  0.8999999999999986  0.8999999999999986  0.2886110000000031   F   F   F
  0.7999999999999972  0.8999999999999986  0.3590739999999997   F   F   F
  0.8999999999999986  0.7999999999999972  0.3590739999999997   F   F   F
  0.9998698811451499  0.9999800581968759  0.5007834850344990   F   F   F
  0.0997877117426981  0.0998663937038843  0.5009734872031459   F   F   F
  0.0000137432464800  0.0999835260106732  0.4294993701711974   F   F   F
  0.0998970629289913  0.0000396810116829  0.4294855234629767   F   F   F
  0.9998659685843455  0.1998505868965246  0.5009025162897799   F   F   F
  0.0995807672495968  0.2997279230456700  0.5009093494822151   F   F   F
  0.0000909959694259  0.3000174840652052  0.4295637671638725   F   F   F
  0.1000379321826034  0.1999179931297379  0.4297010448665107   F   F   F
  0.9998568739780131  0.4000548881456593  0.5009538348063370   F   F   F
  0.0983649981279840  0.5006859018847536  0.5025025384209568   F   F   F
  0.0002468400039002  0.5001542165698875  0.4297887837334057   F   F   F
  0.0997840169244405  0.4004791305351613  0.4297576960593488   F   F   F
  0.9994636156234276  0.6001930996424701  0.5009510524976755   F   F   F
  0.0992312141701526  0.7005557785134510  0.5008244385871059   F   F   F
  0.9999222551106052  0.6999961338433233  0.4295162624276694   F   F   F
  0.1000225662672592  0.5998655767217002  0.4299811889335076   F   F   F
  0.9997400864592205  0.8002702710711281  0.5007819801404685   F   F   F
  0.0996273104092594  0.9002696463591575  0.5007710695123233   F   F   F
  0.9999224708804212  0.9000096695190631  0.4294422317564499   F   F   F
  0.0998588155079656  0.8000800517601059  0.4294972736209864   F   F   F
  0.1996969477509804  0.9999537686868800  0.5008313381972231   F   F   F
  0.2998381686825489  0.0995930793031430  0.5009208190213115   F   F   F
  0.1998542573401100  0.1000264995874567  0.4296345702521950   F   F   F
  0.2999316958875577  0.0000892406996368  0.4294799007865597   F   F   F
  0.1996645969340198  0.1992411041686549  0.5014328748178574   F   F   F
  0.3004748139989044  0.3001844309687076  0.4992283273459852   F   F   F
  0.1996861101072804  0.2996191292188263  0.4295537889465976   F   F   F
  0.2997206448868338  0.1997031467858940  0.4295957057097538   F   F   F
  0.1998476484808742  0.3998324640558893  0.4988649402231579   F   F   F
  0.3001973797143443  0.4999021079692343  0.4996110117128467   F   F   F
  0.1994318006663251  0.5007258125403874  0.4298761528736544   F   F   F
  0.2999442817569282  0.4001265540435614  0.4292162832889010   F   F   F
  0.1984090959283869  0.6015947606464783  0.5011837637304072   F   F   F
  0.2981306206645635  0.7027375729950559  0.5001898279902079   F   F   F
  0.1997931989032876  0.7000638279149888  0.4297372584817633   F   F   F
  0.2993534019360886  0.6006896136671950  0.4299737064297477   F   F   F
  0.1995045498277240  0.8008377702927429  0.5007069486659799   F   F   F
  0.2998228870674443  0.9006831236308938  0.5006743802345432   F   F   F
  0.1998562741989110  0.9001679850210712  0.4294549769994129   F   F   F
  0.2997099019234511  0.8001886463863768  0.4295033312837749   F   F   F
  0.4001389303414253  0.9999493468473347  0.5008271728165075   F   F   F
  0.5006552682991242  0.0998417598258461  0.5008110607095448   F   F   F
  0.4001252798485194  0.0998382396134106  0.4295392828487619   F   F   F
  0.5002156252822176  0.9999340973322977  0.4295375368972955   F   F   F
  0.3996089346040333  0.1991647612911105  0.5000600710868695   F   F   F
  0.5005222279308489  0.2992463987517331  0.4997816353227448   F   F   F
  0.4002026920042206  0.2996991294866660  0.4294184000695773   F   F   F
  0.5007773746317995  0.1996148841393092  0.4299621650933494   F   F   F
  0.4001801680761052  0.3999806301065821  0.5002408422824149   F   F   F
  0.4996598156596849  0.5000690747759939  0.4999856499801860   F   F   F
  0.3998979110752154  0.5002085556976478  0.4294279506923376   F   F   F
  0.5001920661372328  0.3998614643828132  0.4295608331578050   F   F   F
  0.3999377880259264  0.6007208171886608  0.4999853743213082   F   F   F
  0.5002587565482528  0.7006815590034627  0.5000281534798997   F   F   F
  0.3994464073828151  0.7003360286153816  0.4298261868277861   F   F   F
  0.4997657428831445  0.6003453593708985  0.4292412907455984   F   F   F
  0.3997170356817817  0.8004423655441449  0.5007212293878627   F   F   F
  0.5001172836971726  0.9001019053556151  0.5008263659689818   F   F   F
  0.3999528409609344  0.9000877676937696  0.4295135912174883   F   F   F
  0.5000338518787831  0.8001135272370559  0.4295321346238774   F   F   F
  0.6003607853436135  0.9993110179114461  0.5007025301065241   F   F   F
  0.7007850276116674  0.0993291498740759  0.5007513387246642   F   F   F
  0.6003492005983758  0.1000089770314079  0.4296461864753277   F   F   F
  0.7001609922663009  0.9998256636944075  0.4294600407253033   F   F   F
  0.6035375118724293  0.1968716733606199  0.5010151453173594   F   F   F
  0.7002985320615516  0.2995964071427274  0.5006738151662962   F   F   F
  0.6003607714138368  0.2993309814912495  0.4298726952309004   F   F   F
  0.7001269047811998  0.1997430422964285  0.4295839773568967   F   F   F
  0.6005510108042064  0.4005759638806738  0.5001839298521874   F   F   F
  0.7005049069309003  0.4994601713029315  0.5004747425156102   F   F   F
  0.6001898293444140  0.4998111066367847  0.4292397963409423   F   F   F
  0.7002062154304305  0.3997547225659069  0.4294380674273258   F   F   F
  0.5996529173179831  0.5995946195964639  0.4981815531868946   F   F   F
  0.7010614061373048  0.7004204386889940  0.5033123937948542   F   F   F
  0.6006185654792904  0.7003247058793652  0.4296989944825507   F   F   F
  0.7003843041728703  0.6003405370656890  0.4295852302462168   F   F   F
  0.6003559972831432  0.8002792087121907  0.5008315303053091   F   F   F
  0.7003611671178721  0.9000866402737038  0.5008959840610653   F   F   F
  0.6002095977327105  0.8998617663114239  0.4294755038675080   F   F   F
  0.7001949386922793  0.7995538805571949  0.4299072101169849   F   F   F
  0.8004185315909418  0.9997029686487712  0.5007474556456802   F   F   F
  0.9001552461950114  0.0997923349143584  0.5007857796379495   F   F   F
  0.8002106979714584  0.0998983009859028  0.4294452076562362   F   F   F
  0.9000570383936433  0.9999200446213686  0.4294353863571975   F   F   F
  0.8008240126783568  0.1997646288612143  0.5006675888127579   F   F   F
  0.9001109194313194  0.2998959877030324  0.5008167815769922   F   F   F
  0.8001769913860486  0.2998355696547237  0.4294938393586010   F   F   F
  0.9001871790554113  0.1999367406702010  0.4294429107098372   F   F   F
  0.8002600217677188  0.3997916153326305  0.5007880049513990   F   F   F
  0.8997894122170478  0.4999335762260312  0.5008586764589588   F   F   F
  0.8000973740373116  0.4999541227689100  0.4294816925956613   F   F   F
  0.9001206044397435  0.4000299502242320  0.4295245412635382   F   F   F
  0.8002193206696498  0.5999730462917657  0.5007624990868907   F   F   F
  0.9000528172841442  0.7001565636064473  0.5008873923812117   F   F   F
  0.7996854702148838  0.7000298508453843  0.4298442638351697   F   F   F
  0.8999956202262451  0.6000387706191780  0.4295229206652917   F   F   F
  0.8001735986500468  0.8000577858829456  0.5010338868681997   F   F   F
  0.9000905675453015  0.9000200847744897  0.5007761557633128   F   F   F
  0.8000496908509689  0.8998633212327047  0.4294942028538700   F   F   F
  0.8999458455228392  0.7999213900270236  0.4295075615740469   F   F   F
  0.0000000000000000  0.0000000000000000  0.3590739999999997   F   F   F
  0.1000000000000014  0.1000000000000014  0.3590739999999997   F   F   F
  0.0000000000000000  0.1000000000000014  0.2886110000000031   F   F   F
  0.1000000000000014  0.0000000000000000  0.2886110000000031   F   F   F
  0.0000000000000000  0.2000000000000028  0.3590739999999997   F   F   F
  0.1000000000000014  0.2999999999999972  0.3590739999999997   F   F   F
  0.0000000000000000  0.2999999999999972  0.2886110000000031   F   F   F
  0.1000000000000014  0.2000000000000028  0.2886110000000031   F   F   F
  0.0000000000000000  0.3999999999999986  0.3590739999999997   F   F   F
  0.1000000000000014  0.5000000000000000  0.3590739999999997   F   F   F
  0.0000000000000000  0.5000000000000000  0.2886110000000031   F   F   F
  0.1000000000000014  0.3999999999999986  0.2886110000000031   F   F   F
  0.0000000000000000  0.6000000000000014  0.3590739999999997   F   F   F
  0.1000000000000014  0.7000000000000028  0.3590739999999997   F   F   F
  0.0000000000000000  0.7000000000000028  0.2886110000000031   F   F   F
  0.1000000000000014  0.6000000000000014  0.2886110000000031   F   F   F
  0.0000000000000000  0.7999999999999972  0.3590739999999997   F   F   F
  0.1000000000000014  0.8999999999999986  0.3590739999999997   F   F   F
  0.0000000000000000  0.8999999999999986  0.2886110000000031   F   F   F
  0.1000000000000014  0.7999999999999972  0.2886110000000031   F   F   F
  0.2000000000000028  0.0000000000000000  0.3590739999999997   F   F   F
  0.2999999999999972  0.1000000000000014  0.3590739999999997   F   F   F
  0.2000000000000028  0.1000000000000014  0.2886110000000031   F   F   F
  0.2999999999999972  0.0000000000000000  0.2886110000000031   F   F   F
  0.2000000000000028  0.2000000000000028  0.3590739999999997   F   F   F
  0.2999999999999972  0.2999999999999972  0.3590739999999997   F   F   F
  0.2000000000000028  0.2999999999999972  0.2886110000000031   F   F   F
  0.2999999999999972  0.2000000000000028  0.2886110000000031   F   F   F
  0.2000000000000028  0.3999999999999986  0.3590739999999997   F   F   F
  0.2999999999999972  0.5000000000000000  0.3590739999999997   F   F   F
  0.2000000000000028  0.5000000000000000  0.2886110000000031   F   F   F
  0.2999999999999972  0.3999999999999986  0.2886110000000031   F   F   F
  0.2000000000000028  0.6000000000000014  0.3590739999999997   F   F   F
  0.2999999999999972  0.7000000000000028  0.3590739999999997   F   F   F
  0.2000000000000028  0.7000000000000028  0.2886110000000031   F   F   F
  0.2999999999999972  0.6000000000000014  0.2886110000000031   F   F   F
  0.2000000000000028  0.7999999999999972  0.3590739999999997   F   F   F
  0.2999999999999972  0.8999999999999986  0.3590739999999997   F   F   F
  0.2000000000000028  0.8999999999999986  0.2886110000000031   F   F   F
  0.2999999999999972  0.7999999999999972  0.2886110000000031   F   F   F
  0.3999999999999986  0.0000000000000000  0.3590739999999997   F   F   F
  0.5000000000000000  0.1000000000000014  0.3590739999999997   F   F   F
  0.3999999999999986  0.1000000000000014  0.2886110000000031   F   F   F
  0.5000000000000000  0.0000000000000000  0.2886110000000031   F   F   F
  0.3999999999999986  0.2000000000000028  0.3590739999999997   F   F   F
  0.5000000000000000  0.2999999999999972  0.3590739999999997   F   F   F
  0.3999999999999986  0.2999999999999972  0.2886110000000031   F   F   F
  0.5000000000000000  0.2000000000000028  0.2886110000000031   F   F   F
  0.3999999999999986  0.3999999999999986  0.3590739999999997   F   F   F
  0.5000000000000000  0.5000000000000000  0.3590739999999997   F   F   F
  0.3999999999999986  0.5000000000000000  0.2886110000000031   F   F   F
  0.5000000000000000  0.3999999999999986  0.2886110000000031   F   F   F
  0.3999999999999986  0.6000000000000014  0.3590739999999997   F   F   F
  0.5000000000000000  0.7000000000000028  0.3590739999999997   F   F   F
  0.3999999999999986  0.7000000000000028  0.2886110000000031   F   F   F
  0.5000000000000000  0.6000000000000014  0.2886110000000031   F   F   F
  0.3999999999999986  0.7999999999999972  0.3590739999999997   F   F   F
  0.5000000000000000  0.8999999999999986  0.3590739999999997   F   F   F
  0.3999999999999986  0.8999999999999986  0.2886110000000031   F   F   F
  0.5000000000000000  0.7999999999999972  0.2886110000000031   F   F   F
  0.6000000000000014  0.0000000000000000  0.3590739999999997   F   F   F
  0.7000000000000028  0.1000000000000014  0.3590739999999997   F   F   F
  0.6000000000000014  0.1000000000000014  0.2886110000000031   F   F   F
  0.7000000000000028  0.0000000000000000  0.2886110000000031   F   F   F
  0.6000000000000014  0.2000000000000028  0.3590739999999997   F   F   F
  0.7000000000000028  0.2999999999999972  0.3590739999999997   F   F   F
  0.6000000000000014  0.2999999999999972  0.2886110000000031   F   F   F
  0.7000000000000028  0.2000000000000028  0.2886110000000031   F   F   F
  0.6000000000000014  0.3999999999999986  0.3590739999999997   F   F   F
  0.7000000000000028  0.5000000000000000  0.3590739999999997   F   F   F
  0.6000000000000014  0.5000000000000000  0.2886110000000031   F   F   F
  0.7000000000000028  0.3999999999999986  0.2886110000000031   F   F   F
  0.6000000000000014  0.6000000000000014  0.3590739999999997   F   F   F
  0.7000000000000028  0.7000000000000028  0.3590739999999997   F   F   F
  0.6000000000000014  0.7000000000000028  0.2886110000000031   F   F   F
  0.7000000000000028  0.6000000000000014  0.2886110000000031   F   F   F
  0.6000000000000014  0.7999999999999972  0.3590739999999997   F   F   F
  0.7000000000000028  0.8999999999999986  0.3590739999999997   F   F   F
  0.6000000000000014  0.8999999999999986  0.2886110000000031   F   F   F
  0.7000000000000028  0.7999999999999972  0.2886110000000031   F   F   F
  0.7999999999999972  0.0000000000000000  0.3590739999999997   F   F   F
  0.8999999999999986  0.1000000000000014  0.3590739999999997   F   F   F
  0.7999999999999972  0.1000000000000014  0.2886110000000031   F   F   F
  0.8999999999999986  0.0000000000000000  0.2886110000000031   F   F   F
  0.7999999999999972  0.2000000000000028  0.3590739999999997   F   F   F
  0.8999999999999986  0.2999999999999972  0.3590739999999997   F   F   F