Mg  O                                   
   1.00000000000000     
    21.1388521970183838    0.0000000000000000    0.0000000000000000
     0.0000000000000000   21.1388521970183838    0.0000000000000000
     0.0000000000000000    0.0000000000000000   30.0000000000000000
   Au
    20
Selective dynamics
Direct
  0.4319195234119277  0.2276112760788536  0.5808514562783103   T   T   T
  0.5597572207886685  0.2369220363275133  0.5883189114992362   T   T   T
  0.6832267111308497  0.2513698144402241  0.5921024010928022   T   T   T
  0.8084297251585610  0.2602510939133822  0.5951005048401470   T   T   T
  0.4767161243265434  0.3485651120885294  0.5856502124155440   T   T   T
  0.6106212694644881  0.3625097151016377  0.5893802961390477   T   T   T
  0.7483565189126082  0.3727854987328740  0.5913917999938292   T   T   T
  0.5243078844323108  0.4658745347855984  0.5836943002577257   T   T   T
  0.6788757268343915  0.4770101456889932  0.5850532953112904   T   T   T
  0.5954146072412101  0.5744634877261134  0.5776795259268042   T   T   T
  0.4801670234847180  0.2691598461093108  0.6601545949319885   T   T   T
  0.6130805227971834  0.2740048057580182  0.6685880349681170   T   T   T
  0.7446324982576726  0.2977815949443396  0.6704882776583645   T   T   T
  0.5236432876752133  0.4000052409088823  0.6626302703338567   T   T   T
  0.6808973862026448  0.4144510715507579  0.6656512307034532   T   T   T
  0.5951302837520700  0.5147426706409206  0.6559690209056512   T   T   T
  0.5331739327917404  0.3182274696349623  0.7334123460677375   T   T   T
  0.6728856091746138  0.3338313519531297  0.7384278430090276   T   T   T
  0.5952941575079365  0.4468349016380557  0.7313830057922743   T   T   T
  0.5945324327708335  0.3689227225957339  0.8030718580574145   T   T   T
 
  0.00000000E+00  0.00000000E+00  0.00000000E+00
  0.00000000E+00  0.00000000E+00  0.00000000E+00
  0.00000000E+00  0.00000000E+00  0.00000000E+00
  0.00000000E+00  0.00000000E+00  0.00000000E+00
  0.00000000E+00  0.00000000E+00  0.00000000E+00
  0.00000000E+00  0.00000000E+00  0.00000000E+00
  0.00000000E+00  0.00000000E+00  0.00000000E+00
  0.00000000E+00  0.00000000E+00  0.00000000E+00
  0.00000000E+00  0.00000000E+00  0.00000000E+00
  0.00000000E+00  0.00000000E+00  0.00000000E+00
  0.00000000E+00  0.00000000E+00  0.00000000E+00
  0.00000000E+00  0.00000000E+00  0.00000000E+00
  0.00000000E+00  0.00000000E+00  0.00000000E+00
  0.00000000E+00  0.00000000E+00  0.00000000E+00
  0.00000000E+00  0.00000000E+00  0.00000000E+00
  0.00000000E+00  0.00000000E+00  0.00000000E+00
  0.00000000E+00  0.00000000E+00  0.00000000E+00
  0.00000000E+00  0.00000000E+00  0.00000000E+00
  0.00000000E+00  0.00000000E+00  0.00000000E+00
  0.00000000E+00  0.00000000E+00  0.00000000E+00
