Mg  O                                   
   1.00000000000000     
    21.1388521970183838    0.0000000000000000    0.0000000000000000
     0.0000000000000000   21.1388521970183838    0.0000000000000000
     0.0000000000000000    0.0000000000000000   30.0000000000000000
   Au  
    20 
Selective dynamics
Direct
  0.4319195234119288  0.2276112760788511  0.5808514562783078   T   T   T
  0.5597572207886672  0.2369220363275146  0.5883189114992338   T   T   T
  0.6832267111308508  0.2513698144402212  0.5921024010928009   T   T   T
  0.8084297251585607  0.2602510939133832  0.5951005048401486   T   T   T
  0.4767161243265434  0.3485651120885306  0.5856502124155447   T   T   T
  0.6106212694644864  0.3625097151016409  0.5893802961390492   T   T   T
  0.7483565189126050  0.3727854987328710  0.5913917999938281   T   T   T
  0.5243078844323114  0.4658745347855984  0.5836943002577286   T   T   T
  0.6788757268343928  0.4770101456889934  0.5850532953112872   T   T   T
  0.5954146072412074  0.5744634877261111  0.5776795259268056   T   T   T
  0.4801670234847179  0.2691598461093130  0.6601545949319887   T   T   T
  0.6130805227971838  0.2740048057580212  0.6685880349681179   T   T   T
  0.7446324982576742  0.2977815949443414  0.6704882776583634   T   T   T
  0.5236432876752147  0.4000052409088849  0.6626302703338538   T   T   T
  0.6808973862026438  0.4144510715507606  0.6656512307034514   T   T   T
  0.5951302837520736  0.5147426706409217  0.6559690209056522   T   T   T
  0.5331739327917409  0.3182274696349650  0.7334123460677389   T   T   T
  0.6728856091746136  0.3338313519531263  0.7384278430090285   T   T   T
  0.5952941575079340  0.4468349016380526  0.7313830057922754   T   T   T
  0.5945324327708340  0.3689227225957347  0.8030718580574138   T   T   T
