Cu                                      
   1.00000000000000     
    20.0000000000000000    0.0000000000000000    0.0000000000000000
     0.0000000000000000   20.0000000000000000    0.0000000000000000
     0.0000000000000000    0.0000000000000000   20.0000000000000000
   Cu
     8
Direct
  0.6358005552434989  0.4330229108471926  0.4627254869476261
  0.4428115841343043  0.5650895121993500  0.5168333438502728
  0.3663354982877749  0.5297398031823235  0.5988726782385214
  0.4617663614536127  0.4652719765575313  0.5752442648740441
  0.5579270751607552  0.4004825771916884  0.5500442444209455
  0.5411479049071772  0.4992028648749525  0.4898223938387360
  0.6168544317034943  0.5320753350731096  0.4045819413513598
  0.5202550326093913  0.5996115853388631  0.4337892895885034
 
  0.00000000E+00  0.00000000E+00  0.00000000E+00
  0.00000000E+00  0.00000000E+00  0.00000000E+00
  0.00000000E+00  0.00000000E+00  0.00000000E+00
  0.00000000E+00  0.00000000E+00  0.00000000E+00
  0.00000000E+00  0.00000000E+00  0.00000000E+00
  0.00000000E+00  0.00000000E+00  0.00000000E+00
  0.00000000E+00  0.00000000E+00  0.00000000E+00
  0.00000000E+00  0.00000000E+00  0.00000000E+00
