Au                                      
   1.00000000000000     
    20.0000000000000000    0.0000000000000000    0.0000000000000000
     0.0000000000000000   20.0000000000000000    0.0000000000000000
     0.0000000000000000    0.0000000000000000   20.0000000000000000
   Au
     8
Direct
  0.6496549781626086  0.4235583168447690  0.4585658598905198
  0.4337136919761093  0.5751335511178368  0.5164455465389679
  0.3500698680977763  0.5325485705495652  0.6088168602939277
  0.4559773136758452  0.4579483375228008  0.5850182356166940
  0.5627720726542407  0.3850753466593559  0.5580326263845237
  0.5431933350002325  0.4989273374638046  0.4886627707398574
  0.6281805196445163  0.5366368955001164  0.3924072640342615
  0.5193366642886801  0.6146682096067408  0.4239644796112430
 
  0.00000000E+00  0.00000000E+00  0.00000000E+00
  0.00000000E+00  0.00000000E+00  0.00000000E+00
  0.00000000E+00  0.00000000E+00  0.00000000E+00
  0.00000000E+00  0.00000000E+00  0.00000000E+00
  0.00000000E+00  0.00000000E+00  0.00000000E+00
  0.00000000E+00  0.00000000E+00  0.00000000E+00
  0.00000000E+00  0.00000000E+00  0.00000000E+00
  0.00000000E+00  0.00000000E+00  0.00000000E+00
