Ag 
 1.0000000000000000
    21.1388521970183838    0.0000000000000000    0.0000000000000000
     0.0000000000000000   21.1388521970183838    0.0000000000000000
     0.0000000000000000    0.0000000000000000   22.1138852197018352
  Ag
   2
Direct
  0.5432827341680726  0.4567172657849461  0.6253348060777586
  0.4567172658319273  0.5432827341210844  0.6253348060777586
