Cu                                      
   1.0000000000000000     
    20.0000000000000000    0.0000000000000000    0.0000000000000000
     0.0000000000000000   20.0000000000000000    0.0000000000000000
     0.0000000000000000    0.0000000000000000   20.0000000000000000
   Cu
     8
Direct
  0.5452232146660307  0.3914604901466205  0.4098058889297960
  0.5531737383069313  0.5186926466214601  0.5707073758315886
  0.4471419953516502  0.4214063512156798  0.4717270156734514
  0.5370390013680577  0.5001660614893026  0.4521328215372264
  0.4386493098191124  0.5317196105502191  0.5152349160028393
  0.5284856943003717  0.6084799729963351  0.4954182613814027
  0.4638324863694763  0.4404246478110068  0.5892058981203263
  0.5616855151533571  0.4084203615243780  0.5271889899233670

  0.00000000E+00  0.00000000E+00  0.00000000E+00
  0.00000000E+00  0.00000000E+00  0.00000000E+00
  0.00000000E+00  0.00000000E+00  0.00000000E+00
  0.00000000E+00  0.00000000E+00  0.00000000E+00
  0.00000000E+00  0.00000000E+00  0.00000000E+00
  0.00000000E+00  0.00000000E+00  0.00000000E+00
  0.00000000E+00  0.00000000E+00  0.00000000E+00
  0.00000000E+00  0.00000000E+00  0.00000000E+00
