Cu                                      
   1.0000000000000000     
    20.0000000000000000    0.0000000000000000    0.0000000000000000
     0.0000000000000000   20.0000000000000000    0.0000000000000000
     0.0000000000000000    0.0000000000000000   20.0000000000000000
   Cu
     8
Direct
  0.5452232146660340  0.3914604901466178  0.4098058889297967
  0.5531737383069342  0.5186926466214622  0.5707073758315863
  0.4471419953516521  0.4214063512156799  0.4717270156734490
  0.5370390013680598  0.5001660614893035  0.4521328215372264
  0.4386493098191094  0.5317196105502170  0.5152349160028420
  0.5284856943003734  0.6084799729963367  0.4954182613814038
  0.4638324863694740  0.4404246478110063  0.5892058981203264
  0.5616855151533577  0.4084203615243790  0.5271889899233674

  0.00000000E+00  0.00000000E+00  0.00000000E+00
  0.00000000E+00  0.00000000E+00  0.00000000E+00
  0.00000000E+00  0.00000000E+00  0.00000000E+00
  0.00000000E+00  0.00000000E+00  0.00000000E+00
  0.00000000E+00  0.00000000E+00  0.00000000E+00
  0.00000000E+00  0.00000000E+00  0.00000000E+00
  0.00000000E+00  0.00000000E+00  0.00000000E+00
  0.00000000E+00  0.00000000E+00  0.00000000E+00
