Cu Mg  O                                
   1.0000000000000000     
    21.1388521970183838    0.0000000000000000    0.0000000000000000
     0.0000000000000000   21.1388521970183838    0.0000000000000000
     0.0000000000000000    0.0000000000000000   22.1138852197018352
   Cu
     4
Selective dynamics
Direct
  0.3997991031042503  0.5577040095425403  0.5978195079886177   T   T   T
  0.3996560414823449  0.4991617146134928  0.7899052337791304   T   T   T
  0.3995990634862068  0.4989646540449542  0.6879526864422800   T   T   T
  0.3997926292549607  0.4410526955940810  0.5971134920955166   T   T   T

  0.00000000E+00  0.00000000E+00  0.00000000E+00
  0.00000000E+00  0.00000000E+00  0.00000000E+00
  0.00000000E+00  0.00000000E+00  0.00000000E+00
  0.00000000E+00  0.00000000E+00  0.00000000E+00
