Mg  O                                   
   1.00000000000000     
    21.1388521970183838    0.0000000000000000    0.0000000000000000
     0.0000000000000000   21.1388521970183838    0.0000000000000000
     0.0000000000000000    0.0000000000000000   30.0000000000000000
   Au   Mg   O 
    20   200   200
Selective dynamics
Direct
  0.4973078607740788  0.4329002225541956  0.6109144565759266   T   T   T
  0.3273808036869212  0.3142112141931293  0.5761787778171552   T   T   T
  0.5568838102438249  0.5433726471840714  0.5910936214300477   T   T   T
  0.5668168011062420  0.3236774098119710  0.6189181188807780   T   T   T
  0.4492004299875632  0.0971527951457603  0.6012907676800552   T   T   T
  0.6362341546222510  0.2143230178617230  0.6162794714222386   T   T   T
  0.5093239465525059  0.2105054950261831  0.6238029881865970   T   T   T
  0.4286388256952165  0.5405491464011973  0.5905159507096016   T   T   T
  0.6839691606935503  0.5473538478767708  0.5942848589694734   T   T   T
  0.5736804895088312  0.1005645116669598  0.6085345801897191   T   T   T
  0.3704479170432435  0.4302325616068359  0.6049237504621914   T   T   T
  0.8173163350116397  0.3350557643177936  0.5905564636617413   T   T   T
  0.4390288606561938  0.3195664796733979  0.6188311350000575   T   T   T
  0.2521026910599247  0.4161251533509400  0.5790865257953115   T   T   T
  0.6934456646545328  0.3278681408708763  0.6087674836541979   T   T   T
  0.6856760243219497  0.1138741249521544  0.5724958043551212   T   T   T
  0.6248609669843788  0.4351249111247171  0.6063546481713686   T   T   T
  0.7544486010499512  0.4436032580731322  0.5948282011155044   T   T   T
  0.4044862321447340  0.2109392456225905  0.5746741609765138   T   T   T
  0.7575503855688197  0.2212257774934230  0.5831332101509190   T   T   T
  0.0000219524759402  0.9999619172710510  0.4287067439308174   T   T   T
  0.0999739482330639  0.0999514715595637  0.4286978160146191   T   T   T
  0.0000898902958042  0.0999291478431132  0.4975973332547952   T   T   T
  0.0999677532509295  0.9999308532562026  0.4975873023666750   T   T   T
  0.0000132461238778  0.2000030112205735  0.4287215039969752   T   T   T
  0.0999357955366449  0.3000011289364721  0.4287562012470048   T   T   T
  0.0000624813947283  0.3000410772098405  0.4976948073482674   T   T   T
  0.0998436163184309  0.1998585977529928  0.4976285814513446   T   T   T
  0.9998917450455949  0.4000416688803554  0.4287197069046371   T   T   T
  0.0999540961402658  0.5000653064974827  0.4287234262271866   T   T   T
  0.9999122284604596  0.5000861807757673  0.4976315981860537   T   T   T
  0.0992330162872932  0.4002102845462758  0.4978156653268186   T   T   T
  0.9999655751918937  0.6000176303309672  0.4287279465204676   T   T   T
  0.0999965108346714  0.7000185370112604  0.4287208238995461   T   T   T
  0.9999920161179361  0.7000056472503360  0.4975923001175815   T   T   T
  0.0999527311068888  0.6000791036742896  0.4976074958201551   T   T   T
  0.9999992959945985  0.7999823140117783  0.4287185865266068   T   T   T
  0.0999996771298584  0.8999731369144399  0.4287145410048865   T   T   T
  0.0000212800720618  0.8999573552330702  0.4975874481657385   T   T   T
  0.0999988229216839  0.7999931077815887  0.4975884663099279   T   T   T
  0.1999815374285063  0.9999302809354518  0.4287049244868157   T   T   T
  0.3000763934294781  0.0997794613308969  0.4287062669462500   T   T   T
  0.1995978345825407  0.0995336102179039  0.4976244603804432   T   T   T
  0.2998010800442827  0.9997453109584029  0.4976595907804793   T   T   T
  0.1998197604439440  0.1999608582727816  0.4286816333583374   T   T   T
  0.3000041361967618  0.2999577310680195  0.4285664484895690   T   T   T
  0.1985382841085084  0.2996069580456862  0.4987264296028897   T   T   T
  0.2971706309111468  0.1973945303074629  0.4976379690644066   T   T   T
  0.2000174717028713  0.4000540504412982  0.4285284807776790   T   T   T
  0.3002009027547174  0.5003147266575994  0.4285910443657954   T   T   T
  0.1998678212551610  0.5008281872874036  0.4976676876013428   T   T   T
  0.3027969619887756  0.4028599381881932  0.4975403542537151   T   T   T
  0.2000117249273714  0.6001028356768643  0.4287139183119066   T   T   T
  0.3000192904029646  0.7000054826695816  0.4287242873695831   T   T   T
  0.1999990314130144  0.7000332879102587  0.4975979528363723   T   T   T
  0.2999681294796730  0.6001228173490745  0.4976812871468042   T   T   T
  0.2000001099957629  0.7999894563364265  0.4287176651686764   T   T   T
  0.2999987742133214  0.8999516595399939  0.4287220030335845   T   T   T
  0.1999792433209606  0.8999562251549449  0.4975892820135215   T   T   T
  0.2999861341249357  0.7999872734730786  0.4975949517296172   T   T   T
  0.4000836299546719  0.9999233541657020  0.4287469086637259   T   T   T
  0.4998868173843647  0.0999593221648851  0.4288118871096671   T   T   T
  0.4001195479053550  0.0971150537447230  0.4993120009735819   T   T   T
  0.5000569837025779  0.9994497781576186  0.4988809273177850   T   T   T
  0.4000672402309817  0.1998294772485707  0.4284334078573764   T   T   T
  0.5004188931509574  0.3000806753971830  0.4287902659824923   T   T   T
  0.4030456628987125  0.3028004070932298  0.4976335264331695   T   T   T
  0.5030383003817036  0.1999289592151001  0.4991109884331237   T   T   T
  0.4005211295270215  0.4004547847578195  0.4285650305717681   T   T   T
  0.5001132695188062  0.5000338830071698  0.4288290137515034   T   T   T
  0.4004371593200062  0.5001910992541312  0.4994662418410556   T   T   T
  0.5006686202757393  0.4004753956066907  0.4992115117669869   T   T   T
  0.4001593496751426  0.5999103055015382  0.4287494240795553   T   T   T
  0.5000170280024534  0.6998669191447959  0.4288063799630635   T   T   T
  0.4000227436929578  0.7001387649759536  0.4976777762545268   T   T   T
  0.5000432759217475  0.6000102937606542  0.4991524591763934   T   T   T
  0.4000098518130315  0.7999739986454770  0.4287287329996019   T   T   T
  0.4999937813915238  0.9000278531073604  0.4287664476265292   T   T   T
  0.3999679896899551  0.8998624169341554  0.4976437786540870   T   T   T
  0.5000007718385788  0.7999567420573115  0.4976422269745910   T   T   T
  0.5998966482798451  0.0000485818295175  0.4288155444944977   T   T   T
  0.6999600420582510  0.0999381532623431  0.4284246986184002   T   T   T
  0.5969716088557462  0.0996006037769064  0.4993602986779351   T   T   T
  0.7000939328178788  0.9971836548057382  0.4976604593489782   T   T   T
  0.6000036893426000  0.2000639973467528  0.4287954692156077   T   T   T
  0.6999053663311656  0.3004657835391669  0.4287034969731707   T   T   T
  0.6000859499452034  0.3005371401670374  0.4992271193784248   T   T   T
  0.6993846810601099  0.2030665186376481  0.4976616995038228   T   T   T
  0.6000693608686873  0.4000976018683602  0.4289032089680305   T   T   T
  0.6999744623582274  0.4999920571673826  0.4288061952994582   T   T   T
  0.6001059127713333  0.4998800673096113  0.4993064020133318   T   T   T
  0.6999012789363661  0.4002376994777848  0.4992189053934410   T   T   T
  0.6000020944797839  0.5998473674329716  0.4288137300160457   T   T   T
  0.6999869713213940  0.6998430329538436  0.4287954349722867   T   T   T
  0.5999899977241654  0.7000886059512581  0.4976919565599260   T   T   T
  0.7001308775876325  0.5999847250398815  0.4991185849457693   T   T   T
  0.5999901603612301  0.7999389919469593  0.4287318002643516   T   T   T
  0.6999945405447008  0.8998009139737420  0.4286090407518799   T   T   T
  0.5998785097979535  0.8998098477392560  0.4976380719480034   T   T   T
  0.7000033468726414  0.7998993183794667  0.4976156728462939   T   T   T
  0.8000454777721941  0.9998981118279886  0.4287196120934240   T   T   T
  0.9001676003490502  0.0999804680908909  0.4286315258160442   T   T   T
  0.8027954813391673  0.0993323518147733  0.4977121550487453   T   T   T
  0.9001948998162135  0.9997410992969336  0.4975995638964292   T   T   T
  0.8000317737495521  0.2001368791256937  0.4285630185256721   T   T   T
  0.8998772510962283  0.3000846143702347  0.4287198558012619   T   T   T
  0.7999103507294620  0.3009945977409672  0.4989625304077023   T   T   T
  0.9007072464664105  0.2000851372589807  0.4979666104533393   T   T   T
  0.7998322199005514  0.4001940640547517  0.4287140504226272   T   T   T
  0.8998184048765481  0.5000323382675376  0.4287981100766487   T   T   T
  0.7999495312161500  0.5001548711204862  0.4991592867315404   T   T   T
  0.9000062879436044  0.4002478811449208  0.4977056578266712   T   T   T
  0.7998594586763090  0.5998630168272143  0.4288393372281476   T   T   T
  0.8999784380435969  0.6999743826108968  0.4287335461228992   T   T   T
  0.8000002926121894  0.6999769856735369  0.4976525763291164   T   T   T
  0.8999835113806043  0.5999982120905045  0.4976586195985035   T   T   T
  0.7999991550760939  0.7999347790271258  0.4287231341524844   T   T   T
  0.9000202829757242  0.8999453224853866  0.4287056678250991   T   T   T
  0.8001970532785663  0.8998035097691357  0.4975905974913317   T   T   T
  0.9000195825682837  0.7999583860661232  0.4975903435603470   T   T   T
  0.0000000000000000  0.0000000000000000  0.2886110000000031   F   F   F
  0.1000000000000014  0.1000000000000014  0.2886110000000031   F   F   F
  0.0000000000000000  0.1000000000000014  0.3590739999999997   F   F   F
  0.1000000000000014  0.0000000000000000  0.3590739999999997   F   F   F
  0.0000000000000000  0.2000000000000028  0.2886110000000031   F   F   F
  0.1000000000000014  0.2999999999999972  0.2886110000000031   F   F   F
  0.0000000000000000  0.2999999999999972  0.3590739999999997   F   F   F
  0.1000000000000014  0.2000000000000028  0.3590739999999997   F   F   F
  0.0000000000000000  0.3999999999999986  0.2886110000000031   F   F   F
  0.1000000000000014  0.5000000000000000  0.2886110000000031   F   F   F
  0.0000000000000000  0.5000000000000000  0.3590739999999997   F   F   F
  0.1000000000000014  0.3999999999999986  0.3590739999999997   F   F   F
  0.0000000000000000  0.6000000000000014  0.2886110000000031   F   F   F
  0.1000000000000014  0.7000000000000028  0.2886110000000031   F   F   F
  0.0000000000000000  0.7000000000000028  0.3590739999999997   F   F   F
  0.1000000000000014  0.6000000000000014  0.3590739999999997   F   F   F
  0.0000000000000000  0.7999999999999972  0.2886110000000031   F   F   F
  0.1000000000000014  0.8999999999999986  0.2886110000000031   F   F   F
  0.0000000000000000  0.8999999999999986  0.3590739999999997   F   F   F
  0.1000000000000014  0.7999999999999972  0.3590739999999997   F   F   F
  0.2000000000000028  0.0000000000000000  0.2886110000000031   F   F   F
  0.2999999999999972  0.1000000000000014  0.2886110000000031   F   F   F
  0.2000000000000028  0.1000000000000014  0.3590739999999997   F   F   F
  0.2999999999999972  0.0000000000000000  0.3590739999999997   F   F   F
  0.2000000000000028  0.2000000000000028  0.2886110000000031   F   F   F
  0.2999999999999972  0.2999999999999972  0.2886110000000031   F   F   F
  0.2000000000000028  0.2999999999999972  0.3590739999999997   F   F   F
  0.2999999999999972  0.2000000000000028  0.3590739999999997   F   F   F
  0.2000000000000028  0.3999999999999986  0.2886110000000031   F   F   F
  0.2999999999999972  0.5000000000000000  0.2886110000000031   F   F   F
  0.2000000000000028  0.5000000000000000  0.3590739999999997   F   F   F
  0.2999999999999972  0.3999999999999986  0.3590739999999997   F   F   F
  0.2000000000000028  0.6000000000000014  0.2886110000000031   F   F   F
  0.2999999999999972  0.7000000000000028  0.2886110000000031   F   F   F
  0.2000000000000028  0.7000000000000028  0.3590739999999997   F   F   F
  0.2999999999999972  0.6000000000000014  0.3590739999999997   F   F   F
  0.2000000000000028  0.7999999999999972  0.2886110000000031   F   F   F
  0.2999999999999972  0.8999999999999986  0.2886110000000031   F   F   F
  0.2000000000000028  0.8999999999999986  0.3590739999999997   F   F   F
  0.2999999999999972  0.7999999999999972  0.3590739999999997   F   F   F
  0.3999999999999986  0.0000000000000000  0.2886110000000031   F   F   F
  0.5000000000000000  0.1000000000000014  0.2886110000000031   F   F   F
  0.3999999999999986  0.1000000000000014  0.3590739999999997   F   F   F
  0.5000000000000000  0.0000000000000000  0.3590739999999997   F   F   F
  0.3999999999999986  0.2000000000000028  0.2886110000000031   F   F   F
  0.5000000000000000  0.2999999999999972  0.2886110000000031   F   F   F
  0.3999999999999986  0.2999999999999972  0.3590739999999997   F   F   F
  0.5000000000000000  0.2000000000000028  0.3590739999999997   F   F   F
  0.3999999999999986  0.3999999999999986  0.2886110000000031   F   F   F
  0.5000000000000000  0.5000000000000000  0.2886110000000031   F   F   F
  0.3999999999999986  0.5000000000000000  0.3590739999999997   F   F   F
  0.5000000000000000  0.3999999999999986  0.3590739999999997   F   F   F
  0.3999999999999986  0.6000000000000014  0.2886110000000031   F   F   F
  0.5000000000000000  0.7000000000000028  0.2886110000000031   F   F   F
  0.3999999999999986  0.7000000000000028  0.3590739999999997   F   F   F
  0.5000000000000000  0.6000000000000014  0.3590739999999997   F   F   F
  0.3999999999999986  0.7999999999999972  0.2886110000000031   F   F   F
  0.5000000000000000  0.8999999999999986  0.2886110000000031   F   F   F
  0.3999999999999986  0.8999999999999986  0.3590739999999997   F   F   F
  0.5000000000000000  0.7999999999999972  0.3590739999999997   F   F   F
  0.6000000000000014  0.0000000000000000  0.2886110000000031   F   F   F
  0.7000000000000028  0.1000000000000014  0.2886110000000031   F   F   F
  0.6000000000000014  0.1000000000000014  0.3590739999999997   F   F   F
  0.7000000000000028  0.0000000000000000  0.3590739999999997   F   F   F
  0.6000000000000014  0.2000000000000028  0.2886110000000031   F   F   F
  0.7000000000000028  0.2999999999999972  0.2886110000000031   F   F   F
  0.6000000000000014  0.2999999999999972  0.3590739999999997   F   F   F
  0.7000000000000028  0.2000000000000028  0.3590739999999997   F   F   F
  0.6000000000000014  0.3999999999999986  0.2886110000000031   F   F   F
  0.7000000000000028  0.5000000000000000  0.2886110000000031   F   F   F
  0.6000000000000014  0.5000000000000000  0.3590739999999997   F   F   F
  0.7000000000000028  0.3999999999999986  0.3590739999999997   F   F   F
  0.6000000000000014  0.6000000000000014  0.2886110000000031   F   F   F
  0.7000000000000028  0.7000000000000028  0.2886110000000031   F   F   F
  0.6000000000000014  0.7000000000000028  0.3590739999999997   F   F   F
  0.7000000000000028  0.6000000000000014  0.3590739999999997   F   F   F
  0.6000000000000014  0.7999999999999972  0.2886110000000031   F   F   F
  0.7000000000000028  0.8999999999999986  0.2886110000000031   F   F   F
  0.6000000000000014  0.8999999999999986  0.3590739999999997   F   F   F
  0.7000000000000028  0.7999999999999972  0.3590739999999997   F   F   F
  0.7999999999999972  0.0000000000000000  0.2886110000000031   F   F   F
  0.8999999999999986  0.1000000000000014  0.2886110000000031   F   F   F
  0.7999999999999972  0.1000000000000014  0.3590739999999997   F   F   F
  0.8999999999999986  0.0000000000000000  0.3590739999999997   F   F   F
  0.7999999999999972  0.2000000000000028  0.2886110000000031   F   F   F
  0.8999999999999986  0.2999999999999972  0.2886110000000031   F   F   F
  0.7999999999999972  0.2999999999999972  0.3590739999999997   F   F   F
  0.8999999999999986  0.2000000000000028  0.3590739999999997   F   F   F
  0.7999999999999972  0.3999999999999986  0.2886110000000031   F   F   F
  0.8999999999999986  0.5000000000000000  0.2886110000000031   F   F   F
  0.7999999999999972  0.5000000000000000  0.3590739999999997   F   F   F
  0.8999999999999986  0.3999999999999986  0.3590739999999997   F   F   F
  0.7999999999999972  0.6000000000000014  0.2886110000000031   F   F   F
  0.8999999999999986  0.7000000000000028  0.2886110000000031   F   F   F
  0.7999999999999972  0.7000000000000028  0.3590739999999997   F   F   F
  0.8999999999999986  0.6000000000000014  0.3590739999999997   F   F   F
  0.7999999999999972  0.7999999999999972  0.2886110000000031   F   F   F
  0.8999999999999986  0.8999999999999986  0.2886110000000031   F   F   F
  0.7999999999999972  0.8999999999999986  0.3590739999999997   F   F   F
  0.8999999999999986  0.7999999999999972  0.3590739999999997   F   F   F
  0.0000068055784439  0.0002007785229452  0.4989044915164840   T   T   T
  0.0999728816074779  0.1001141847617433  0.4988759151526025   T   T   T
  0.0000010335836151  0.1001885557586206  0.4284672590629341   T   T   T
  0.1000173653095331  0.0001958735217329  0.4284618964279616   T   T   T
  0.0001727082740999  0.2000328590771687  0.4989671221249949   T   T   T
  0.1001093928444092  0.2999761201295783  0.4991697046106864   T   T   T
  0.0000682631356668  0.2998472259788088  0.4285985167006601   T   T   T
  0.1001722361287207  0.2001860358357135  0.4285132238681229   T   T   T
  0.0002246524134080  0.3997211382353001  0.4989158934100573   T   T   T
  0.1001463667031288  0.4997443809057955  0.4989580597963226   T   T   T
  0.0002392973790251  0.4997721713630483  0.4284875286314929   T   T   T
  0.1005767946594744  0.3997103425034965  0.4287436377923370   T   T   T
  0.0002606190091683  0.5999568102329746  0.4988921552223644   T   T   T
  0.1000538826308244  0.7000316970382769  0.4989071625249792   T   T   T
  0.0001126831625413  0.7000319303978912  0.4284624586583305   T   T   T
  0.1001240177836138  0.5998273674580830  0.4284698652093866   T   T   T
  0.0000988717701986  0.8001548360017523  0.4989149019844206   T   T   T
  0.0999905670405070  0.9001988769059608  0.4989193010494688   T   T   T
  0.0000079355024383  0.9001765357939746  0.4284631208228546   T   T   T
  0.1000106052119847  0.8001038119047266  0.4284657036186061   T   T   T
  0.1998717595512787  0.0001493810984954  0.4988865526667894   T   T   T
  0.2996155061064414  0.0995888974612029  0.4991001882126866   T   T   T
  0.2001098919511080  0.1002613373335066  0.4285298208745232   T   T   T
  0.3000521294570220  0.0001943062128547  0.4285294353887608   T   T   T
  0.1995029030547002  0.1997879114665722  0.4991314211331357   T   T   T
  0.2986421735328832  0.2983934988892543  0.4996954392110098   T   T   T
  0.2003472269570494  0.3003402285311125  0.4292289909684754   T   T   T
  0.3000009356374420  0.2001627298734618  0.4289056924514654   T   T   T
  0.1990856394992946  0.4001623481922536  0.5012169232417349   T   T   T
  0.2997151164389393  0.5008451478809448  0.4977290759775741   T   T   T
  0.1999411287881472  0.4993231777184661  0.4286341080830312   T   T   T
  0.2995582374066501  0.3993316374946758  0.4289727686071316   T   T   T
  0.1998404319392719  0.5999579060717579  0.4988587911033946   T   T   T
  0.2998067194714267  0.7000896539068293  0.4988777268689546   T   T   T
  0.1999373320807223  0.6999979964563821  0.4284573696834286   T   T   T
  0.2998804998797553  0.6000961413598063  0.4284202067380463   T   T   T
  0.1999331926417440  0.8001316460997643  0.4989016218133600   T   T   T
  0.2998397972822460  0.9001775929134652  0.4988948745880322   T   T   T
  0.1999869397763590  0.9001640591504767  0.4284590258151297   T   T   T
  0.2999451545866663  0.8001122846523714  0.4284584424945379   T   T   T
  0.3998287061012249  0.9994596331528314  0.4992496680461826   T   T   T
  0.4993987738374770  0.1001802806620944  0.4981299888928774   T   T   T
  0.3996369178070083  0.1003789112022275  0.4290253171346095   T   T   T
  0.4999188639582357  0.0001453382548888  0.4287383903402429   T   T   T
  0.3978730441529450  0.1989721130974260  0.4999169992057091   T   T   T
  0.5001762118224775  0.2991189426525409  0.4987768659844605   T   T   T
  0.3994420063987363  0.2992811801020281  0.4290469511551791   T   T   T
  0.4992961331606978  0.1999160289019954  0.4290616877465041   T   T   T
  0.4005056060967931  0.3999604861932937  0.4975088702494688   T   T   T
  0.5001018028258670  0.4997328784573938  0.4977224284529242   T   T   T
  0.3996824259893472  0.5000172353937629  0.4285791745411771   T   T   T
  0.4998782143655660  0.3994262146789751  0.4285562573421231   T   T   T
  0.3996754143946077  0.6006884475521801  0.4992969505943421   T   T   T
  0.4998499331852884  0.7003744745462228  0.4990482564803429   T   T   T
  0.3998747931807358  0.7000377193295293  0.4285219665854498   T   T   T
  0.4998320921884272  0.6002065363830056  0.4287458537335738   T   T   T
  0.3998428866330528  0.8002280761540703  0.4988939548895388   T   T   T
  0.5000168191878274  0.9001428893682331  0.4990610658826213   T   T   T
  0.3999576781708640  0.9001967090444865  0.4285024702902902   T   T   T
  0.4999497456986290  0.8001926231234151  0.4284884503704021   T   T   T
  0.6003025652722869  0.9999954848679238  0.4989436642016045   T   T   T
  0.7029562786418140  0.0980843737269339  0.4994457457709984   T   T   T
  0.6005127985343677  0.1000337130464146  0.4290721841003275   T   T   T
  0.7001415299803853  0.0003221928656387  0.4287016091159046   T   T   T
  0.6006031869742614  0.1996122913682541  0.4982985426263724   T   T   T
  0.6998801920162023  0.3004567714064805  0.4978616560793299   T   T   T
  0.5999459706560231  0.2995022114924240  0.4285974726317576   T   T   T
  0.7005476091660441  0.1993321281750511  0.4289497942547840   T   T   T
  0.5999060430116927  0.3995569765412554  0.4987713402540734   T   T   T
  0.7000736759130888  0.4998612534222246  0.4977625304537270   T   T   T
  0.5999456553290869  0.5000511355180777  0.4286243014058257   T   T   T
  0.7000803283428709  0.3997930422041662  0.4284822366700709   T   T   T
  0.5998286725858222  0.6007554368691075  0.4991549727097677   T   T   T
  0.7000777995127194  0.7003835820269089  0.4990961800088556   T   T   T
  0.5999675586386246  0.7001575150959880  0.4285281332921258   T   T   T
  0.6999762432939178  0.6002694492139113  0.4287393637103420   T   T   T
  0.6000084419535270  0.8002906822852012  0.4988645364396547   T   T   T
  0.7001185536167398  0.8997355874058286  0.4988512858493479   T   T   T
  0.6000944740150658  0.9002380485473580  0.4285026351206298   T   T   T
  0.7000387968642841  0.8001586925711095  0.4284596671687808   T   T   T
  0.8003795292670830  0.9998019104796754  0.4989585606332199   T   T   T
  0.9004958542055164  0.1000968526777015  0.4989880271965887   T   T   T
  0.7999969749561870  0.1002745627437847  0.4288240994361701   T   T   T
  0.8999550932368834  0.0002555439628793  0.4284919769028974   T   T   T
  0.8008596479307144  0.1992813590930993  0.5001658388621877   T   T   T
  0.9004351101658870  0.2997693925800604  0.4996957459896905   T   T   T
  0.8002998386244826  0.2992991364949376  0.4288889912491030   T   T   T
  0.8998200875233096  0.1999973814394025  0.4288057103324050   T   T   T
  0.8007596570488147  0.4001908951096169  0.4977323109942091   T   T   T
  0.9004963896974942  0.4999364643711743  0.4989797162316947   T   T   T
  0.8003392275978598  0.5001103490229326  0.4285760197911515   T   T   T
  0.9003565009537056  0.3996040186276559  0.4284874469079369   T   T   T
  0.8003568047068299  0.6002777113035052  0.4991633942181011   T   T   T
  0.9002175361975731  0.7001676497478755  0.4989044483655931   T   T   T
  0.8000992055809419  0.7001279989808893  0.4285095242561852   T   T   T
  0.9001947982125316  0.6000352677895862  0.4285061826108532   T   T   T
  0.8001446284331379  0.8002540339023199  0.4989021498661046   T   T   T
  0.9001462174600334  0.9001487420501064  0.4988813767892566   T   T   T
  0.7999687903279948  0.9002096339263304  0.4284693086894436   T   T   T
  0.9000518366322652  0.8001508653960059  0.4284588320780003   T   T   T
  0.0000000000000000  0.0000000000000000  0.3590739999999997   F   F   F
  0.1000000000000014  0.1000000000000014  0.3590739999999997   F   F   F
  0.0000000000000000  0.1000000000000014  0.2886110000000031   F   F   F
  0.1000000000000014  0.0000000000000000  0.2886110000000031   F   F   F
  0.0000000000000000  0.2000000000000028  0.3590739999999997   F   F   F
  0.1000000000000014  0.2999999999999972  0.3590739999999997   F   F   F
  0.0000000000000000  0.2999999999999972  0.2886110000000031   F   F   F
  0.1000000000000014  0.2000000000000028  0.2886110000000031   F   F   F
  0.0000000000000000  0.3999999999999986  0.3590739999999997   F   F   F
  0.1000000000000014  0.5000000000000000  0.3590739999999997   F   F   F
  0.0000000000000000  0.5000000000000000  0.2886110000000031   F   F   F
  0.1000000000000014  0.3999999999999986  0.2886110000000031   F   F   F
  0.0000000000000000  0.6000000000000014  0.3590739999999997   F   F   F
  0.1000000000000014  0.7000000000000028  0.3590739999999997   F   F   F
  0.0000000000000000  0.7000000000000028  0.2886110000000031   F   F   F
  0.1000000000000014  0.6000000000000014  0.2886110000000031   F   F   F
  0.0000000000000000  0.7999999999999972  0.3590739999999997   F   F   F
  0.1000000000000014  0.8999999999999986  0.3590739999999997   F   F   F
  0.0000000000000000  0.8999999999999986  0.2886110000000031   F   F   F
  0.1000000000000014  0.7999999999999972  0.2886110000000031   F   F   F
  0.2000000000000028  0.0000000000000000  0.3590739999999997   F   F   F
  0.2999999999999972  0.1000000000000014  0.3590739999999997   F   F   F
  0.2000000000000028  0.1000000000000014  0.2886110000000031   F   F   F
  0.2999999999999972  0.0000000000000000  0.2886110000000031   F   F   F
  0.2000000000000028  0.2000000000000028  0.3590739999999997   F   F   F
  0.2999999999999972  0.2999999999999972  0.3590739999999997   F   F   F
  0.2000000000000028  0.2999999999999972  0.2886110000000031   F   F   F
  0.2999999999999972  0.2000000000000028  0.2886110000000031   F   F   F
  0.2000000000000028  0.3999999999999986  0.3590739999999997   F   F   F
  0.2999999999999972  0.5000000000000000  0.3590739999999997   F   F   F
  0.2000000000000028  0.5000000000000000  0.2886110000000031   F   F   F
  0.2999999999999972  0.3999999999999986  0.2886110000000031   F   F   F
  0.2000000000000028  0.6000000000000014  0.3590739999999997   F   F   F
  0.2999999999999972  0.7000000000000028  0.3590739999999997   F   F   F
  0.2000000000000028  0.7000000000000028  0.2886110000000031   F   F   F
  0.2999999999999972  0.6000000000000014  0.2886110000000031   F   F   F
  0.2000000000000028  0.7999999999999972  0.3590739999999997   F   F   F
  0.2999999999999972  0.8999999999999986  0.3590739999999997   F   F   F
  0.2000000000000028  0.8999999999999986  0.2886110000000031   F   F   F
  0.2999999999999972  0.7999999999999972  0.2886110000000031   F   F   F
  0.3999999999999986  0.0000000000000000  0.3590739999999997   F   F   F
  0.5000000000000000  0.1000000000000014  0.3590739999999997   F   F   F
  0.3999999999999986  0.1000000000000014  0.2886110000000031   F   F   F
  0.5000000000000000  0.0000000000000000  0.2886110000000031   F   F   F
  0.3999999999999986  0.2000000000000028  0.3590739999999997   F   F   F
  0.5000000000000000  0.2999999999999972  0.3590739999999997   F   F   F
  0.3999999999999986  0.2999999999999972  0.2886110000000031   F   F   F
  0.5000000000000000  0.2000000000000028  0.2886110000000031   F   F   F
  0.3999999999999986  0.3999999999999986  0.3590739999999997   F   F   F
  0.5000000000000000  0.5000000000000000  0.3590739999999997   F   F   F
  0.3999999999999986  0.5000000000000000  0.2886110000000031   F   F   F
  0.5000000000000000  0.3999999999999986  0.2886110000000031   F   F   F
  0.3999999999999986  0.6000000000000014  0.3590739999999997   F   F   F
  0.5000000000000000  0.7000000000000028  0.3590739999999997   F   F   F
  0.3999999999999986  0.7000000000000028  0.2886110000000031   F   F   F
  0.5000000000000000  0.6000000000000014  0.2886110000000031   F   F   F
  0.3999999999999986  0.7999999999999972  0.3590739999999997   F   F   F
  0.5000000000000000  0.8999999999999986  0.3590739999999997   F   F   F
  0.3999999999999986  0.8999999999999986  0.2886110000000031   F   F   F
  0.5000000000000000  0.7999999999999972  0.2886110000000031   F   F   F
  0.6000000000000014  0.0000000000000000  0.3590739999999997   F   F   F
  0.7000000000000028  0.1000000000000014  0.3590739999999997   F   F   F
  0.6000000000000014  0.1000000000000014  0.2886110000000031   F   F   F
  0.7000000000000028  0.0000000000000000  0.2886110000000031   F   F   F
  0.6000000000000014  0.2000000000000028  0.3590739999999997   F   F   F
  0.7000000000000028  0.2999999999999972  0.3590739999999997   F   F   F
  0.6000000000000014  0.2999999999999972  0.2886110000000031   F   F   F
  0.7000000000000028  0.2000000000000028  0.2886110000000031   F   F   F
  0.6000000000000014  0.3999999999999986  0.3590739999999997   F   F   F
  0.7000000000000028  0.5000000000000000  0.3590739999999997   F   F   F
  0.6000000000000014  0.5000000000000000  0.2886110000000031   F   F   F
  0.7000000000000028  0.3999999999999986  0.2886110000000031   F   F   F
  0.6000000000000014  0.6000000000000014  0.3590739999999997   F   F   F
  0.7000000000000028  0.7000000000000028  0.3590739999999997   F   F   F
  0.6000000000000014  0.7000000000000028  0.2886110000000031   F   F   F
  0.7000000000000028  0.6000000000000014  0.2886110000000031   F   F   F
  0.6000000000000014  0.7999999999999972  0.3590739999999997   F   F   F
  0.7000000000000028  0.8999999999999986  0.3590739999999997   F   F   F
  0.6000000000000014  0.8999999999999986  0.2886110000000031   F   F   F
  0.7000000000000028  0.7999999999999972  0.2886110000000031   F   F   F
  0.7999999999999972  0.0000000000000000  0.3590739999999997   F   F   F
  0.8999999999999986  0.1000000000000014  0.3590739999999997   F   F   F
  0.7999999999999972  0.1000000000000014  0.2886110000000031   F   F   F
  0.8999999999999986  0.0000000000000000  0.2886110000000031   F   F   F
  0.7999999999999972  0.2000000000000028  0.3590739999999997   F   F   F
  0.8999999999999986  0.2999999999999972  0.3590739999999997   F   F   F