Au Mg  O                                
   1.00000000000000     
    21.1388521970183838    0.0000000000000000    0.0000000000000000
     0.0000000000000000   21.1388521970183838    0.0000000000000000
     0.0000000000000000    0.0000000000000000   22.1138852197018352
   Au   Mg   O 
     4   100   100
Selective dynamics
Direct
  0.2895820369280386  0.5066118608007386  0.6377345019259124   T   T   T
  0.3968725997656435  0.4418290587980493  0.6178388190022801   T   T   T
  0.3970974370325138  0.5694284936041001  0.6092354940284395   T   T   T
  0.5049154995567591  0.5058234632903194  0.6365835675988905   T   T   T
  0.0000000000000000  0.0000000000000000  0.4069841147579822   F   F   F
  0.1000000000000014  0.1000000000000014  0.4069841147579822   F   F   F
  0.0000000000000000  0.1000000000000014  0.5025749708513558   F   F   F
  0.1000000000000014  0.0000000000000000  0.5025749708513558   F   F   F
  0.0000000000000000  0.2000000000000028  0.4069841147579822   F   F   F
  0.1000000000000014  0.2999999999999972  0.4069841147579822   F   F   F
  0.0000000000000000  0.2999999999999972  0.5025749708513558   F   F   F
  0.1000000000000014  0.2000000000000028  0.5025749708513558   F   F   F
  0.0000000000000000  0.3999999999999986  0.4069841147579822   F   F   F
  0.1000000000000014  0.5000000000000000  0.4069841147579822   F   F   F
  0.0000000000000000  0.5000000000000000  0.5025749708513558   F   F   F
  0.1000000000000014  0.3999999999999986  0.5025749708513558   F   F   F
  0.0000000000000000  0.6000000000000014  0.4069841147579822   F   F   F
  0.1000000000000014  0.7000000000000028  0.4069841147579822   F   F   F
  0.0000000000000000  0.7000000000000028  0.5025749708513558   F   F   F
  0.1000000000000014  0.6000000000000014  0.5025749708513558   F   F   F
  0.0000000000000000  0.7999999999999972  0.4069841147579822   F   F   F
  0.1000000000000014  0.8999999999999986  0.4069841147579822   F   F   F
  0.0000000000000000  0.8999999999999986  0.5025749708513558   F   F   F
  0.1000000000000014  0.7999999999999972  0.5025749708513558   F   F   F
  0.2000000000000028  0.0000000000000000  0.4069841147579822   F   F   F
  0.2999999999999972  0.1000000000000014  0.4069841147579822   F   F   F
  0.2000000000000028  0.1000000000000014  0.5025749708513558   F   F   F
  0.2999999999999972  0.0000000000000000  0.5025749708513558   F   F   F
  0.2000000000000028  0.2000000000000028  0.4069841147579822   F   F   F
  0.2999999999999972  0.2999999999999972  0.4069841147579822   F   F   F
  0.2000000000000028  0.2999999999999972  0.5025749708513558   F   F   F
  0.2999999999999972  0.2000000000000028  0.5025749708513558   F   F   F
  0.2000000000000028  0.3999999999999986  0.4069841147579822   F   F   F
  0.2999999999999972  0.5000000000000000  0.4069841147579822   F   F   F
  0.2000000000000028  0.5000000000000000  0.5025749708513558   F   F   F
  0.2999999999999972  0.3999999999999986  0.5025749708513558   F   F   F
  0.2000000000000028  0.6000000000000014  0.4069841147579822   F   F   F
  0.2999999999999972  0.7000000000000028  0.4069841147579822   F   F   F
  0.2000000000000028  0.7000000000000028  0.5025749708513558   F   F   F
  0.2999999999999972  0.6000000000000014  0.5025749708513558   F   F   F
  0.2000000000000028  0.7999999999999972  0.4069841147579822   F   F   F
  0.2999999999999972  0.8999999999999986  0.4069841147579822   F   F   F
  0.2000000000000028  0.8999999999999986  0.5025749708513558   F   F   F
  0.2999999999999972  0.7999999999999972  0.5025749708513558   F   F   F
  0.3999999999999986  0.0000000000000000  0.4069841147579822   F   F   F
  0.5000000000000000  0.1000000000000014  0.4069841147579822   F   F   F
  0.3999999999999986  0.1000000000000014  0.5025749708513558   F   F   F
  0.5000000000000000  0.0000000000000000  0.5025749708513558   F   F   F
  0.3999999999999986  0.2000000000000028  0.4069841147579822   F   F   F
  0.5000000000000000  0.2999999999999972  0.4069841147579822   F   F   F
  0.3999999999999986  0.2999999999999972  0.5025749708513558   F   F   F
  0.5000000000000000  0.2000000000000028  0.5025749708513558   F   F   F
  0.3999999999999986  0.3999999999999986  0.4069841147579822   F   F   F
  0.5000000000000000  0.5000000000000000  0.4069841147579822   F   F   F
  0.3999999999999986  0.5000000000000000  0.5025749708513558   F   F   F
  0.5000000000000000  0.3999999999999986  0.5025749708513558   F   F   F
  0.3999999999999986  0.6000000000000014  0.4069841147579822   F   F   F
  0.5000000000000000  0.7000000000000028  0.4069841147579822   F   F   F
  0.3999999999999986  0.7000000000000028  0.5025749708513558   F   F   F
  0.5000000000000000  0.6000000000000014  0.5025749708513558   F   F   F
  0.3999999999999986  0.7999999999999972  0.4069841147579822   F   F   F
  0.5000000000000000  0.8999999999999986  0.4069841147579822   F   F   F
  0.3999999999999986  0.8999999999999986  0.5025749708513558   F   F   F
  0.5000000000000000  0.7999999999999972  0.5025749708513558   F   F   F
  0.6000000000000014  0.0000000000000000  0.4069841147579822   F   F   F
  0.7000000000000028  0.1000000000000014  0.4069841147579822   F   F   F
  0.6000000000000014  0.1000000000000014  0.5025749708513558   F   F   F
  0.7000000000000028  0.0000000000000000  0.5025749708513558   F   F   F
  0.6000000000000014  0.2000000000000028  0.4069841147579822   F   F   F
  0.7000000000000028  0.2999999999999972  0.4069841147579822   F   F   F
  0.6000000000000014  0.2999999999999972  0.5025749708513558   F   F   F
  0.7000000000000028  0.2000000000000028  0.5025749708513558   F   F   F
  0.6000000000000014  0.3999999999999986  0.4069841147579822   F   F   F
  0.7000000000000028  0.5000000000000000  0.4069841147579822   F   F   F
  0.6000000000000014  0.5000000000000000  0.5025749708513558   F   F   F
  0.7000000000000028  0.3999999999999986  0.5025749708513558   F   F   F
  0.6000000000000014  0.6000000000000014  0.4069841147579822   F   F   F
  0.7000000000000028  0.7000000000000028  0.4069841147579822   F   F   F
  0.6000000000000014  0.7000000000000028  0.5025749708513558   F   F   F
  0.7000000000000028  0.6000000000000014  0.5025749708513558   F   F   F
  0.6000000000000014  0.7999999999999972  0.4069841147579822   F   F   F
  0.7000000000000028  0.8999999999999986  0.4069841147579822   F   F   F
  0.6000000000000014  0.8999999999999986  0.5025749708513558   F   F   F
  0.7000000000000028  0.7999999999999972  0.5025749708513558   F   F   F
  0.7999999999999972  0.0000000000000000  0.4069841147579822   F   F   F
  0.8999999999999986  0.1000000000000014  0.4069841147579822   F   F   F
  0.7999999999999972  0.1000000000000014  0.5025749708513558   F   F   F
  0.8999999999999986  0.0000000000000000  0.5025749708513558   F   F   F
  0.7999999999999972  0.2000000000000028  0.4069841147579822   F   F   F
  0.8999999999999986  0.2999999999999972  0.4069841147579822   F   F   F
  0.7999999999999972  0.2999999999999972  0.5025749708513558   F   F   F
  0.8999999999999986  0.2000000000000028  0.5025749708513558   F   F   F
  0.7999999999999972  0.3999999999999986  0.4069841147579822   F   F   F
  0.8999999999999986  0.5000000000000000  0.4069841147579822   F   F   F
  0.7999999999999972  0.5000000000000000  0.5025749708513558   F   F   F
  0.8999999999999986  0.3999999999999986  0.5025749708513558   F   F   F
  0.7999999999999972  0.6000000000000014  0.4069841147579822   F   F   F
  0.8999999999999986  0.7000000000000028  0.4069841147579822   F   F   F
  0.7999999999999972  0.7000000000000028  0.5025749708513558   F   F   F
  0.8999999999999986  0.6000000000000014  0.5025749708513558   F   F   F
  0.7999999999999972  0.7999999999999972  0.4069841147579822   F   F   F
  0.8999999999999986  0.8999999999999986  0.4069841147579822   F   F   F
  0.7999999999999972  0.8999999999999986  0.5025749708513558   F   F   F
  0.8999999999999986  0.7999999999999972  0.5025749708513558   F   F   F
  0.0000000000000000  0.0000000000000000  0.5025749708513558   F   F   F
  0.1000000000000014  0.1000000000000014  0.5025749708513558   F   F   F
  0.0000000000000000  0.1000000000000014  0.4069841147579822   F   F   F
  0.1000000000000014  0.0000000000000000  0.4069841147579822   F   F   F
  0.0000000000000000  0.2000000000000028  0.5025749708513558   F   F   F
  0.1000000000000014  0.2999999999999972  0.5025749708513558   F   F   F
  0.0000000000000000  0.2999999999999972  0.4069841147579822   F   F   F
  0.1000000000000014  0.2000000000000028  0.4069841147579822   F   F   F
  0.0000000000000000  0.3999999999999986  0.5025749708513558   F   F   F
  0.1000000000000014  0.5000000000000000  0.5025749708513558   F   F   F
  0.0000000000000000  0.5000000000000000  0.4069841147579822   F   F   F
  0.1000000000000014  0.3999999999999986  0.4069841147579822   F   F   F
  0.0000000000000000  0.6000000000000014  0.5025749708513558   F   F   F
  0.1000000000000014  0.7000000000000028  0.5025749708513558   F   F   F
  0.0000000000000000  0.7000000000000028  0.4069841147579822   F   F   F
  0.1000000000000014  0.6000000000000014  0.4069841147579822   F   F   F
  0.0000000000000000  0.7999999999999972  0.5025749708513558   F   F   F
  0.1000000000000014  0.8999999999999986  0.5025749708513558   F   F   F
  0.0000000000000000  0.8999999999999986  0.4069841147579822   F   F   F
  0.1000000000000014  0.7999999999999972  0.4069841147579822   F   F   F
  0.2000000000000028  0.0000000000000000  0.5025749708513558   F   F   F
  0.2999999999999972  0.1000000000000014  0.5025749708513558   F   F   F
  0.2000000000000028  0.1000000000000014  0.4069841147579822   F   F   F
  0.2999999999999972  0.0000000000000000  0.4069841147579822   F   F   F
  0.2000000000000028  0.2000000000000028  0.5025749708513558   F   F   F
  0.2999999999999972  0.2999999999999972  0.5025749708513558   F   F   F
  0.2000000000000028  0.2999999999999972  0.4069841147579822   F   F   F
  0.2999999999999972  0.2000000000000028  0.4069841147579822   F   F   F
  0.2000000000000028  0.3999999999999986  0.5025749708513558   F   F   F
  0.2999999999999972  0.5000000000000000  0.5025749708513558   F   F   F
  0.2000000000000028  0.5000000000000000  0.4069841147579822   F   F   F
  0.2999999999999972  0.3999999999999986  0.4069841147579822   F   F   F
  0.2000000000000028  0.6000000000000014  0.5025749708513558   F   F   F
  0.2999999999999972  0.7000000000000028  0.5025749708513558   F   F   F
  0.2000000000000028  0.7000000000000028  0.4069841147579822   F   F   F
  0.2999999999999972  0.6000000000000014  0.4069841147579822   F   F   F
  0.2000000000000028  0.7999999999999972  0.5025749708513558   F   F   F
  0.2999999999999972  0.8999999999999986  0.5025749708513558   F   F   F
  0.2000000000000028  0.8999999999999986  0.4069841147579822   F   F   F
  0.2999999999999972  0.7999999999999972  0.4069841147579822   F   F   F
  0.3999999999999986  0.0000000000000000  0.5025749708513558   F   F   F
  0.5000000000000000  0.1000000000000014  0.5025749708513558   F   F   F
  0.3999999999999986  0.1000000000000014  0.4069841147579822   F   F   F
  0.5000000000000000  0.0000000000000000  0.4069841147579822   F   F   F
  0.3999999999999986  0.2000000000000028  0.5025749708513558   F   F   F
  0.5000000000000000  0.2999999999999972  0.5025749708513558   F   F   F
  0.3999999999999986  0.2999999999999972  0.4069841147579822   F   F   F
  0.5000000000000000  0.2000000000000028  0.4069841147579822   F   F   F
  0.3999999999999986  0.3999999999999986  0.5025749708513558   F   F   F
  0.5000000000000000  0.5000000000000000  0.5025749708513558   F   F   F
  0.3999999999999986  0.5000000000000000  0.4069841147579822   F   F   F
  0.5000000000000000  0.3999999999999986  0.4069841147579822   F   F   F
  0.3999999999999986  0.6000000000000014  0.5025749708513558   F   F   F
  0.5000000000000000  0.7000000000000028  0.5025749708513558   F   F   F
  0.3999999999999986  0.7000000000000028  0.4069841147579822   F   F   F
  0.5000000000000000  0.6000000000000014  0.4069841147579822   F   F   F
  0.3999999999999986  0.7999999999999972  0.5025749708513558   F   F   F
  0.5000000000000000  0.8999999999999986  0.5025749708513558   F   F   F
  0.3999999999999986  0.8999999999999986  0.4069841147579822   F   F   F
  0.5000000000000000  0.7999999999999972  0.4069841147579822   F   F   F
  0.6000000000000014  0.0000000000000000  0.5025749708513558   F   F   F
  0.7000000000000028  0.1000000000000014  0.5025749708513558   F   F   F
  0.6000000000000014  0.1000000000000014  0.4069841147579822   F   F   F
  0.7000000000000028  0.0000000000000000  0.4069841147579822   F   F   F
  0.6000000000000014  0.2000000000000028  0.5025749708513558   F   F   F
  0.7000000000000028  0.2999999999999972  0.5025749708513558   F   F   F
  0.6000000000000014  0.2999999999999972  0.4069841147579822   F   F   F
  0.7000000000000028  0.2000000000000028  0.4069841147579822   F   F   F
  0.6000000000000014  0.3999999999999986  0.5025749708513558   F   F   F
  0.7000000000000028  0.5000000000000000  0.5025749708513558   F   F   F
  0.6000000000000014  0.5000000000000000  0.4069841147579822   F   F   F
  0.7000000000000028  0.3999999999999986  0.4069841147579822   F   F   F
  0.6000000000000014  0.6000000000000014  0.5025749708513558   F   F   F
  0.7000000000000028  0.7000000000000028  0.5025749708513558   F   F   F
  0.6000000000000014  0.7000000000000028  0.4069841147579822   F   F   F
  0.7000000000000028  0.6000000000000014  0.4069841147579822   F   F   F
  0.6000000000000014  0.7999999999999972  0.5025749708513558   F   F   F
  0.7000000000000028  0.8999999999999986  0.5025749708513558   F   F   F
  0.6000000000000014  0.8999999999999986  0.4069841147579822   F   F   F
  0.7000000000000028  0.7999999999999972  0.4069841147579822   F   F   F
  0.7999999999999972  0.0000000000000000  0.5025749708513558   F   F   F
  0.8999999999999986  0.1000000000000014  0.5025749708513558   F   F   F
  0.7999999999999972  0.1000000000000014  0.4069841147579822   F   F   F
  0.8999999999999986  0.0000000000000000  0.4069841147579822   F   F   F
  0.7999999999999972  0.2000000000000028  0.5025749708513558   F   F   F
  0.8999999999999986  0.2999999999999972  0.5025749708513558   F   F   F
  0.7999999999999972  0.2999999999999972  0.4069841147579822   F   F   F
  0.8999999999999986  0.2000000000000028  0.4069841147579822   F   F   F
  0.7999999999999972  0.3999999999999986  0.5025749708513558   F   F   F
  0.8999999999999986  0.5000000000000000  0.5025749708513558   F   F   F
  0.7999999999999972  0.5000000000000000  0.4069841147579822   F   F   F
  0.8999999999999986  0.3999999999999986  0.4069841147579822   F   F   F
  0.7999999999999972  0.6000000000000014  0.5025749708513558   F   F   F
  0.8999999999999986  0.7000000000000028  0.5025749708513558   F   F   F
  0.7999999999999972  0.7000000000000028  0.4069841147579822   F   F   F
  0.8999999999999986  0.6000000000000014  0.4069841147579822   F   F   F
  0.7999999999999972  0.7999999999999972  0.5025749708513558   F   F   F
  0.8999999999999986  0.8999999999999986  0.5025749708513558   F   F   F
  0.7999999999999972  0.8999999999999986  0.4069841147579822   F   F   F
  0.8999999999999986  0.7999999999999972  0.4069841147579822   F   F   F
 
  0.00000000E+00  0.00000000E+00  0.00000000E+00
  0.00000000E+00  0.00000000E+00  0.00000000E+00
  0.00000000E+00  0.00000000E+00  0.00000000E+00
  0.00000000E+00  0.00000000E+00  0.00000000E+00
  0.00000000E+00  0.00000000E+00  0.00000000E+00
  0.00000000E+00  0.00000000E+00  0.00000000E+00
  0.00000000E+00  0.00000000E+00  0.00000000E+00
  0.00000000E+00  0.00000000E+00  0.00000000E+00
  0.00000000E+00  0.00000000E+00  0.00000000E+00
  0.00000000E+00  0.00000000E+00  0.00000000E+00
  0.00000000E+00  0.00000000E+00  0.00000000E+00
  0.00000000E+00  0.00000000E+00  0.00000000E+00
  0.00000000E+00  0.00000000E+00  0.00000000E+00
  0.00000000E+00  0.00000000E+00  0.00000000E+00
  0.00000000E+00  0.00000000E+00  0.00000000E+00
  0.00000000E+00  0.00000000E+00  0.00000000E+00
  0.00000000E+00  0.00000000E+00  0.00000000E+00
  0.00000000E+00  0.00000000E+00  0.00000000E+00
  0.00000000E+00  0.00000000E+00  0.00000000E+00
  0.00000000E+00  0.00000000E+00  0.00000000E+00
  0.00000000E+00  0.00000000E+00  0.00000000E+00
  0.00000000E+00  0.00000000E+00  0.00000000E+00
  0.00000000E+00  0.00000000E+00  0.00000000E+00
  0.00000000E+00  0.00000000E+00  0.00000000E+00
  0.00000000E+00  0.00000000E+00  0.00000000E+00
  0.00000000E+00  0.00000000E+00  0.00000000E+00
  0.00000000E+00  0.00000000E+00  0.00000000E+00
  0.00000000E+00  0.00000000E+00  0.00000000E+00
  0.00000000E+00  0.00000000E+00  0.00000000E+00
  0.00000000E+00  0.00000000E+00  0.00000000E+00
  0.00000000E+00  0.00000000E+00  0.00000000E+00
  0.00000000E+00  0.00000000E+00  0.00000000E+00
  0.00000000E+00  0.00000000E+00  0.00000000E+00
  0.00000000E+00  0.00000000E+00  0.00000000E+00
  0.00000000E+00  0.00000000E+00  0.00000000E+00
  0.00000000E+00  0.00000000E+00  0.00000000E+00
  0.00000000E+00  0.00000000E+00  0.00000000E+00
  0.00000000E+00  0.00000000E+00  0.00000000E+00
  0.00000000E+00  0.00000000E+00  0.00000000E+00
  0.00000000E+00  0.00000000E+00  0.00000000E+00
  0.00000000E+00  0.00000000E+00  0.00000000E+00
  0.00000000E+00  0.00000000E+00  0.00000000E+00
  0.00000000E+00  0.00000000E+00  0.00000000E+00
  0.00000000E+00  0.00000000E+00  0.00000000E+00
  0.00000000E+00  0.00000000E+00  0.00000000E+00
  0.00000000E+00  0.00000000E+00  0.00000000E+00
  0.00000000E+00  0.00000000E+00  0.00000000E+00
  0.00000000E+00  0.00000000E+00  0.00000000E+00
  0.00000000E+00  0.00000000E+00  0.00000000E+00
  0.00000000E+00  0.00000000E+00  0.00000000E+00
  0.00000000E+00  0.00000000E+00  0.00000000E+00
  0.00000000E+00  0.00000000E+00  0.00000000E+00
  0.00000000E+00  0.00000000E+00  0.00000000E+00
  0.00000000E+00  0.00000000E+00  0.00000000E+00
  0.00000000E+00  0.00000000E+00  0.00000000E+00
  0.00000000E+00  0.00000000E+00  0.00000000E+00
  0.00000000E+00  0.00000000E+00  0.00000000E+00
  0.00000000E+00  0.00000000E+00  0.00000000E+00
  0.00000000E+00  0.00000000E+00  0.00000000E+00
  0.00000000E+00  0.00000000E+00  0.00000000E+00
  0.00000000E+00  0.00000000E+00  0.00000000E+00
  0.00000000E+00  0.00000000E+00  0.00000000E+00
  0.00000000E+00  0.00000000E+00  0.00000000E+00
  0.00000000E+00  0.00000000E+00  0.00000000E+00
  0.00000000E+00  0.00000000E+00  0.00000000E+00
  0.00000000E+00  0.00000000E+00  0.00000000E+00
  0.00000000E+00  0.00000000E+00  0.00000000E+00
  0.00000000E+00  0.00000000E+00  0.00000000E+00
  0.00000000E+00  0.00000000E+00  0.00000000E+00
  0.00000000E+00  0.00000000E+00  0.00000000E+00
  0.00000000E+00  0.00000000E+00  0.00000000E+00
  0.00000000E+00  0.00000000E+00  0.00000000E+00
  0.00000000E+00  0.00000000E+00  0.00000000E+00
  0.00000000E+00  0.00000000E+00  0.00000000E+00
  0.00000000E+00  0.00000000E+00  0.00000000E+00
  0.00000000E+00  0.00000000E+00  0.00000000E+00
  0.00000000E+00  0.00000000E+00  0.00000000E+00
  0.00000000E+00  0.00000000E+00  0.00000000E+00
  0.00000000E+00  0.00000000E+00  0.00000000E+00
  0.00000000E+00  0.00000000E+00  0.00000000E+00
  0.00000000E+00  0.00000000E+00  0.00000000E+00
  0.00000000E+00  0.00000000E+00  0.00000000E+00
  0.00000000E+00  0.00000000E+00  0.00000000E+00
  0.00000000E+00  0.00000000E+00  0.00000000E+00
  0.00000000E+00  0.00000000E+00  0.00000000E+00
  0.00000000E+00  0.00000000E+00  0.00000000E+00
  0.00000000E+00  0.00000000E+00  0.00000000E+00
  0.00000000E+00  0.00000000E+00  0.00000000E+00
  0.00000000E+00  0.00000000E+00  0.00000000E+00
  0.00000000E+00  0.00000000E+00  0.00000000E+00
  0.00000000E+00  0.00000000E+00  0.00000000E+00
  0.00000000E+00  0.00000000E+00  0.00000000E+00
  0.00000000E+00  0.00000000E+00  0.00000000E+00
  0.00000000E+00  0.00000000E+00  0.00000000E+00
  0.00000000E+00  0.00000000E+00  0.00000000E+00
  0.00000000E+00  0.00000000E+00  0.00000000E+00
  0.00000000E+00  0.00000000E+00  0.00000000E+00
  0.00000000E+00  0.00000000E+00  0.00000000E+00
  0.00000000E+00  0.00000000E+00  0.00000000E+00
  0.00000000E+00  0.00000000E+00  0.00000000E+00
  0.00000000E+00  0.00000000E+00  0.00000000E+00
  0.00000000E+00  0.00000000E+00  0.00000000E+00
  0.00000000E+00  0.00000000E+00  0.00000000E+00
  0.00000000E+00  0.00000000E+00  0.00000000E+00
  0.00000000E+00  0.00000000E+00  0.00000000E+00
  0.00000000E+00  0.00000000E+00  0.00000000E+00
  0.00000000E+00  0.00000000E+00  0.00000000E+00
  0.00000000E+00  0.00000000E+00  0.00000000E+00
  0.00000000E+00  0.00000000E+00  0.00000000E+00
  0.00000000E+00  0.00000000E+00  0.00000000E+00
  0.00000000E+00  0.00000000E+00  0.00000000E+00
  0.00000000E+00  0.00000000E+00  0.00000000E+00
  0.00000000E+00  0.00000000E+00  0.00000000E+00
  0.00000000E+00  0.00000000E+00  0.00000000E+00
  0.00000000E+00  0.00000000E+00  0.00000000E+00
  0.00000000E+00  0.00000000E+00  0.00000000E+00
  0.00000000E+00  0.00000000E+00  0.00000000E+00
  0.00000000E+00  0.00000000E+00  0.00000000E+00
  0.00000000E+00  0.00000000E+00  0.00000000E+00
  0.00000000E+00  0.00000000E+00  0.00000000E+00
  0.00000000E+00  0.00000000E+00  0.00000000E+00
  0.00000000E+00  0.00000000E+00  0.00000000E+00
  0.00000000E+00  0.00000000E+00  0.00000000E+00
  0.00000000E+00  0.00000000E+00  0.00000000E+00
  0.00000000E+00  0.00000000E+00  0.00000000E+00
  0.00000000E+00  0.00000000E+00  0.00000000E+00
  0.00000000E+00  0.00000000E+00  0.00000000E+00
  0.00000000E+00  0.00000000E+00  0.00000000E+00
  0.00000000E+00  0.00000000E+00  0.00000000E+00
  0.00000000E+00  0.00000000E+00  0.00000000E+00
  0.00000000E+00  0.00000000E+00  0.00000000E+00
  0.00000000E+00  0.00000000E+00  0.00000000E+00
  0.00000000E+00  0.00000000E+00  0.00000000E+00
  0.00000000E+00  0.00000000E+00  0.00000000E+00
  0.00000000E+00  0.00000000E+00  0.00000000E+00
  0.00000000E+00  0.00000000E+00  0.00000000E+00
  0.00000000E+00  0.00000000E+00  0.00000000E+00
  0.00000000E+00  0.00000000E+00  0.00000000E+00
  0.00000000E+00  0.00000000E+00  0.00000000E+00
  0.00000000E+00  0.00000000E+00  0.00000000E+00
  0.00000000E+00  0.00000000E+00  0.00000000E+00
  0.00000000E+00  0.00000000E+00  0.00000000E+00
  0.00000000E+00  0.00000000E+00  0.00000000E+00
  0.00000000E+00  0.00000000E+00  0.00000000E+00
  0.00000000E+00  0.00000000E+00  0.00000000E+00
  0.00000000E+00  0.00000000E+00  0.00000000E+00
  0.00000000E+00  0.00000000E+00  0.00000000E+00
  0.00000000E+00  0.00000000E+00  0.00000000E+00
  0.00000000E+00  0.00000000E+00  0.00000000E+00
  0.00000000E+00  0.00000000E+00  0.00000000E+00
  0.00000000E+00  0.00000000E+00  0.00000000E+00
  0.00000000E+00  0.00000000E+00  0.00000000E+00
  0.00000000E+00  0.00000000E+00  0.00000000E+00
  0.00000000E+00  0.00000000E+00  0.00000000E+00
  0.00000000E+00  0.00000000E+00  0.00000000E+00
  0.00000000E+00  0.00000000E+00  0.00000000E+00
  0.00000000E+00  0.00000000E+00  0.00000000E+00
  0.00000000E+00  0.00000000E+00  0.00000000E+00
  0.00000000E+00  0.00000000E+00  0.00000000E+00
  0.00000000E+00  0.00000000E+00  0.00000000E+00
  0.00000000E+00  0.00000000E+00  0.00000000E+00
  0.00000000E+00  0.00000000E+00  0.00000000E+00
  0.00000000E+00  0.00000000E+00  0.00000000E+00
  0.00000000E+00  0.00000000E+00  0.00000000E+00
  0.00000000E+00  0.00000000E+00  0.00000000E+00
  0.00000000E+00  0.00000000E+00  0.00000000E+00
  0.00000000E+00  0.00000000E+00  0.00000000E+00
  0.00000000E+00  0.00000000E+00  0.00000000E+00
  0.00000000E+00  0.00000000E+00  0.00000000E+00
  0.00000000E+00  0.00000000E+00  0.00000000E+00
  0.00000000E+00  0.00000000E+00  0.00000000E+00
  0.00000000E+00  0.00000000E+00  0.00000000E+00
  0.00000000E+00  0.00000000E+00  0.00000000E+00
  0.00000000E+00  0.00000000E+00  0.00000000E+00
  0.00000000E+00  0.00000000E+00  0.00000000E+00
  0.00000000E+00  0.00000000E+00  0.00000000E+00
  0.00000000E+00  0.00000000E+00  0.00000000E+00
  0.00000000E+00  0.00000000E+00  0.00000000E+00
  0.00000000E+00  0.00000000E+00  0.00000000E+00
  0.00000000E+00  0.00000000E+00  0.00000000E+00
  0.00000000E+00  0.00000000E+00  0.00000000E+00
  0.00000000E+00  0.00000000E+00  0.00000000E+00
  0.00000000E+00  0.00000000E+00  0.00000000E+00
  0.00000000E+00  0.00000000E+00  0.00000000E+00
  0.00000000E+00  0.00000000E+00  0.00000000E+00
  0.00000000E+00  0.00000000E+00  0.00000000E+00
  0.00000000E+00  0.00000000E+00  0.00000000E+00
  0.00000000E+00  0.00000000E+00  0.00000000E+00
  0.00000000E+00  0.00000000E+00  0.00000000E+00
  0.00000000E+00  0.00000000E+00  0.00000000E+00
  0.00000000E+00  0.00000000E+00  0.00000000E+00
  0.00000000E+00  0.00000000E+00  0.00000000E+00
  0.00000000E+00  0.00000000E+00  0.00000000E+00
  0.00000000E+00  0.00000000E+00  0.00000000E+00
  0.00000000E+00  0.00000000E+00  0.00000000E+00
  0.00000000E+00  0.00000000E+00  0.00000000E+00
  0.00000000E+00  0.00000000E+00  0.00000000E+00
  0.00000000E+00  0.00000000E+00  0.00000000E+00
  0.00000000E+00  0.00000000E+00  0.00000000E+00
  0.00000000E+00  0.00000000E+00  0.00000000E+00
  0.00000000E+00  0.00000000E+00  0.00000000E+00
  0.00000000E+00  0.00000000E+00  0.00000000E+00
  0.00000000E+00  0.00000000E+00  0.00000000E+00
  0.00000000E+00  0.00000000E+00  0.00000000E+00
