SYSTEM=MgO-rocksalt
ISMEAR=0
SIGMA=0.05
EDIFF=1E-6
ALGO=ALL
ISTART=0
IBRION=-1
NSW=0
ISYM=2

GGA = MK 
PARAM1 = 0.1234 
PARAM2 = 1.0
LUSE_VDW = .TRUE.
AGGAC = 0.0

ENCUT=520
PREC=Accurate  #default (Normal) usually safe, structures/energies change little with Accurate
LASPH=.TRUE.
LREAL=Auto

NELM=200
NELMIN=8
NCORE=4
KPAR=2
LWAVE=.FALSE.
LCHARG=.FALSE.
ISPIN=2
