Mg  O                                   
   1.00000000000000     
    21.1388521970183838    0.0000000000000000    0.0000000000000000
     0.0000000000000000   21.1388521970183838    0.0000000000000000
     0.0000000000000000    0.0000000000000000   30.0000000000000000
   Au  
    20 
Selective dynamics
Direct
  0.5226709647389870  0.4471437492593156  0.6037140096395631   T   T   T
  0.3903824392820819  0.4617678330523364  0.6112410351780077   T   T   T
  0.2620763240464977  0.4764477207293000  0.6097962749381736   T   T   T
  0.1421545602852594  0.4872446275252663  0.5776399040189807   T   T   T
  0.5938872003790987  0.5508450959144294  0.5979409002875127   T   T   T
  0.4671920833569128  0.5631094008338011  0.6096810120731475   T   T   T
  0.3411246800767127  0.5794063673309150  0.6139646583228299   T   T   T
  0.2231060086266510  0.5887155303800099  0.5773759450225915   T   T   T
  0.5638689134282723  0.3287641502855770  0.6057830508126620   T   T   T
  0.4393435339985018  0.3456281215729835  0.6059535911341897   T   T   T
  0.3142020288356427  0.3573995806225054  0.6061886971273086   T   T   T
  0.1885088537311566  0.3724184016069044  0.5946305708415069   T   T   T
  0.6615715041035360  0.6545047592373813  0.5793568623838110   T   T   T
  0.5400091289192845  0.6691760400722925  0.5979781918257829   T   T   T
  0.4188685543923447  0.6842425858497293  0.6109215783147577   T   T   T
  0.3062487212635083  0.6863472550114911  0.5726951697981686   T   T   T
  0.5892908766914814  0.2176104723149326  0.5698016454991821   T   T   T
  0.4807738708666331  0.2247080201490987  0.6107821569588295   T   T   T
  0.3595447986681928  0.2388565226134363  0.5975942795976626   T   T   T
  0.2341318005608245  0.2562859623643352  0.5891614409095542   T   T   T
