SYSTEM=MgO-rocksalt
ISMEAR=0
SIGMA=0.05
EDIFF=1E-4
ALGO=ALL
ISTART=0
IBRION=-1
NSW=0
ISYM=3
DIPOL=0.5 0.5 0.5
IDIPOL = 3
LDIPOL = .TRUE.

LHFCALC = .TRUE.
GGA = PE
IVDW=13
VDW_S8=1.2007
VDW_A1=0.4009
VDW_A2=5.0293

ENCUT=520
PREC=Normal  #default (Normal) usually safe, structures/energies change little with Accurate
LASPH=.TRUE.
LREAL=Auto
ISPIN=1
NELM=200
NELMIN=8
NCORE=16
KPAR=1
LWAVE=.FALSE.
LCHARG=.FALSE.
