Cu 
 1.0000000000000000
    21.1388521970183838    0.0000000000000000    0.0000000000000000
     0.0000000000000000   21.1388521970183838    0.0000000000000000
     0.0000000000000000    0.0000000000000000   22.1138852197018352
  Cu
   2
Direct
  0.4999999738751555  0.5999999381080769  0.7273383509322889
  0.4999999738751555  0.5999999381080769  0.6267938969200522
