SYSTEM=MgO-rocksalt
ISMEAR=0
SIGMA=0.05
EDIFF=1E-6
ALGO=ALL
ISTART=0
IBRION=-1
NSW=0
ISYM=2
DIPOL=0.5 0.5 0.5
IDIPOL = 3
LDIPOL = .TRUE.

GGA=PE
IVDW=13
VDW_S8=0.9595
VDW_A1=0.3857
VDW_A2=4.8069    

ENCUT=520
PREC=Accurate  #default (Normal) usually safe, structures/energies change little with Accurate
LASPH=.TRUE.
LREAL=Auto
ISPIN=1
NELM=200
NELMIN=8
NCORE=4
KPAR=2
LWAVE=.FALSE.
LCHARG=.FALSE.
