Ag                                      
   1.0000000000000000     
    20.0000000000000000    0.0000000000000000    0.0000000000000000
     0.0000000000000000   20.0000000000000000    0.0000000000000000
     0.0000000000000000    0.0000000000000000   20.0000000000000000
   Ag
     6
Direct
  0.4955722486976819  0.4762319474978307  0.5248862637262047
  0.4248076618408523  0.4858895132330788  0.4121133887528977
  0.4074708718545938  0.5761995725156440  0.5169386975043676
  0.5303527022210079  0.5924512928267913  0.5806553276216465
  0.6235021871385834  0.5126648262245693  0.5142106945743457
  0.5581947017022714  0.4456316092770927  0.4109514301555340

  0.00000000E+00  0.00000000E+00  0.00000000E+00
  0.00000000E+00  0.00000000E+00  0.00000000E+00
  0.00000000E+00  0.00000000E+00  0.00000000E+00
  0.00000000E+00  0.00000000E+00  0.00000000E+00
  0.00000000E+00  0.00000000E+00  0.00000000E+00
  0.00000000E+00  0.00000000E+00  0.00000000E+00
