Ag                                      
   1.0000000000000000     
    20.0000000000000000    0.0000000000000000    0.0000000000000000
     0.0000000000000000   20.0000000000000000    0.0000000000000000
     0.0000000000000000    0.0000000000000000   20.0000000000000000
   Ag
     6
Direct
  0.4955722486976839  0.4762319474978298  0.5248862637262022
  0.4248076618408518  0.4858895132330758  0.4121133887528998
  0.4074708718545921  0.5761995725156410  0.5169386975043651
  0.5303527022210091  0.5924512928267944  0.5806553276216491
  0.6235021871385840  0.5126648262245723  0.5142106945743450
  0.5581947017022699  0.4456316092770933  0.4109514301555350

  0.00000000E+00  0.00000000E+00  0.00000000E+00
  0.00000000E+00  0.00000000E+00  0.00000000E+00
  0.00000000E+00  0.00000000E+00  0.00000000E+00
  0.00000000E+00  0.00000000E+00  0.00000000E+00
  0.00000000E+00  0.00000000E+00  0.00000000E+00
  0.00000000E+00  0.00000000E+00  0.00000000E+00
