SYSTEM=MgO-rocksalt
ISMEAR=0
SIGMA=0.05
EDIFF=1E-6
ALGO=ALL
ISTART=0
IBRION=-1
NSW=0
ISYM=2
DIPOL=0.5 0.5 0.5
IDIPOL = 3
LDIPOL = .TRUE.

GGA=PE
IVDW=1
VDW_C6=24.67 0.63 0.70
VDW_R0=1.639 1.243 1.342

ENCUT=520
PREC=Accurate  #default (Normal) usually safe, structures/energies change little with Accurate
LASPH=.TRUE.
LREAL=Auto
ISPIN=1
NELM=200
NELMIN=8
NCORE=4
KPAR=2
LWAVE=.FALSE.
LCHARG=.FALSE.
