Cu Mg  O                                
   1.00000000000000     
    21.1388521970183838    0.0000000000000000    0.0000000000000000
     0.0000000000000000   21.1388521970183838    0.0000000000000000
     0.0000000000000000    0.0000000000000000   22.1138852197018352
   Cu
     4
Selective dynamics
Direct
  0.4000004480375736  0.4174218203819322  0.5906660549476683   T   T   T
  0.4899308865538643  0.4878283987779639  0.6004793198616483   T   T   T
  0.3100747401471082  0.4878287876881302  0.6004793198616483   T   T   T
  0.4000051786633918  0.4919902435579075  0.6641876077377447   T   T   T
 
  0.00000000E+00  0.00000000E+00  0.00000000E+00
  0.00000000E+00  0.00000000E+00  0.00000000E+00
  0.00000000E+00  0.00000000E+00  0.00000000E+00
  0.00000000E+00  0.00000000E+00  0.00000000E+00
