Ag Mg  O                                
   1.0000000000000000     
    21.1388521970183838    0.0000000000000000    0.0000000000000000
     0.0000000000000000   21.1388521970183838    0.0000000000000000
     0.0000000000000000    0.0000000000000000   22.1138852197018352
   Ag  
     4 
Selective dynamics
Direct
  0.2856246106738274  0.5052854285088224  0.6298579694696631   T   T   T
  0.3975153184834856  0.4413097874790474  0.6217237295397178   T   T   T
  0.3977827591395232  0.5677713687358080  0.6153785182483988   T   T   T
  0.5097725447861921  0.5045278934791908  0.6286852358130884   T   T   T
