Au                                      
   1.0000000000000000     
    20.0000000000000000    0.0000000000000000    0.0000000000000000
     0.0000000000000000   20.0000000000000000    0.0000000000000000
     0.0000000000000000    0.0000000000000000   20.0000000000000000
   Au
     6
Direct
  0.5270531827768943  0.5302091522011830  0.5583225216740175
  0.3988180069396845  0.5735150079898368  0.5569152068557361
  0.4645287407705476  0.5449330407490321  0.4419561977226342
  0.4206673342814329  0.4392007655882958  0.5281070050862269
  0.5351302765155534  0.4224169933762306  0.4643327967946779
  0.5998938132858811  0.5440564628904236  0.4450270409317075

  0.00000000E+00  0.00000000E+00  0.00000000E+00
  0.00000000E+00  0.00000000E+00  0.00000000E+00
  0.00000000E+00  0.00000000E+00  0.00000000E+00
  0.00000000E+00  0.00000000E+00  0.00000000E+00
  0.00000000E+00  0.00000000E+00  0.00000000E+00
  0.00000000E+00  0.00000000E+00  0.00000000E+00
