Ag Mg  O                                
   1.0000000000000000     
    21.1388521970183838    0.0000000000000000    0.0000000000000000
     0.0000000000000000   21.1388521970183838    0.0000000000000000
     0.0000000000000000    0.0000000000000000   22.1138852197018352
   Ag
     4
Selective dynamics
Direct
  0.4000755413971788  0.4285395592330872  0.6103670471379274   T   T   T
  0.4002393247751570  0.5115047205703860  0.6973175796208864   T   T   T
  0.4005743167556517  0.6413294515579153  0.7129242977984021   T   T   T
  0.4002035301410700  0.5899757070888967  0.6044099267002778   T   T   T

  0.00000000E+00  0.00000000E+00  0.00000000E+00
  0.00000000E+00  0.00000000E+00  0.00000000E+00
  0.00000000E+00  0.00000000E+00  0.00000000E+00
  0.00000000E+00  0.00000000E+00  0.00000000E+00
