Mg  O                                   
   1.0000000000000000     
    21.1388521970183838    0.0000000000000000    0.0000000000000000
     0.0000000000000000   21.1388521970183838    0.0000000000000000
     0.0000000000000000    0.0000000000000000   30.0000000000000000
   Au   Mg   O 
    20   200   200
Selective dynamics
Direct
  0.4294607872023378  0.2252710255956785  0.5856757155997016   T   T   T
  0.5580702816076865  0.2326993813615180  0.5957162067861829   T   T   T
  0.6827369603239394  0.2456821751945708  0.6018488716551623   T   T   T
  0.8088131518727071  0.2583553507225695  0.6075335188472167   T   T   T
  0.4757995617983862  0.3465827139564538  0.5910115277676155   T   T   T
  0.6100261204301076  0.3582737919739459  0.5967629624583916   T   T   T
  0.7458023106661678  0.3693813043557894  0.6004603179196695   T   T   T
  0.5256497183077697  0.4641524627858609  0.5894758495455379   T   T   T
  0.6764599859338578  0.4745922592913164  0.5927322980993632   T   T   T
  0.5953797074290974  0.5744987875253901  0.5835397011696863   T   T   T
  0.4752746910935693  0.2670369507176933  0.6665659373310543   T   T   T
  0.6087229824718540  0.2710740622822435  0.6776049570726047   T   T   T
  0.7407491082998658  0.2954485802535487  0.6817739154551650   T   T   T
  0.5210931651220584  0.3984541350905368  0.6694351747416605   T   T   T
  0.6771610053518394  0.4129302422863332  0.6751955168237644   T   T   T
  0.5928002677953031  0.5153751173765898  0.6634999792858125   T   T   T
  0.5262022169344643  0.3168809692951329  0.7415237471890289   T   T   T
  0.6659453733742090  0.3325613224413359  0.7489907159410991   T   T   T
  0.5894781880209732  0.4476113739985874  0.7400586811916934   T   T   T
  0.5851179681818341  0.3698173039155533  0.8126778109101541   T   T   T
  0.0000074754276258 -0.0000304052154127  0.4305472086618149   T   T   T
  0.0999182592446016  0.0999473127069482  0.4305636387024839   T   T   T
  0.0000701176284132  0.0997988109603584  0.5010615930470391   T   T   T
  0.0998986040128303  0.9998382507714858  0.5010365766427375   T   T   T
 -0.0000385041982142  0.1999481074334351  0.4305739530646273   T   T   T
  0.0998859311524132  0.2999654540219878  0.4305648432736746   T   T   T
  0.0001801547372298  0.2999029677763843  0.5011343306901302   T   T   T
  0.0998246602773036  0.1998687897743479  0.5010974228189281   T   T   T
 -0.0000235345300647  0.3999582008765827  0.4305843288316215   T   T   T
  0.0999317370153768  0.5000193418138319  0.4305489824618486   T   T   T
  0.0001371999313346  0.5000517380239750  0.5010907450359360   T   T   T
  0.0998880822874774  0.4000601777491815  0.5010460826302331   T   T   T
  0.0000436436585332  0.6000072597182055  0.4305563748222327   T   T   T
  0.0999662122583273  0.7000355199173066  0.4305454179668427   T   T   T
  0.0001323184264075  0.7001025651753997  0.5010432756751192   T   T   T
  0.0999445356425286  0.6001078505105820  0.5010448098905385   T   T   T
  0.0000556112022045  0.8000272011253110  0.4305419088545591   T   T   T
  0.0999611057213249  0.8999705187330208  0.4305449052282948   T   T   T
  0.0000730079826167  0.8999800583580284  0.5010382636438486   T   T   T
  0.0999614260687181  0.8000189546122879  0.5010378947746588   T   T   T
  0.1999048315912337 -0.0000618478076397  0.4305375227916020   T   T   T
  0.2998971374079311  0.0999174771560774  0.4308455252478200   T   T   T
  0.1996259700310078  0.0996424431244661  0.5011207188752893   T   T   T
  0.2996079270023780  0.9996537609972429  0.5011103022691642   T   T   T
  0.1998189101437038  0.1999455473499882  0.4306397087135779   T   T   T
  0.2998348848156205  0.3000165732935789  0.4307407300657395   T   T   T
  0.1995581902944522  0.3001468534786298  0.5010864542107483   T   T   T
  0.2983515617416238  0.1998773600820997  0.5018170198508362   T   T   T
  0.1998314112877995  0.4000284548156082  0.4305083342430033   T   T   T
  0.2997701109510102  0.5000652760686188  0.4305445992590721   T   T   T
  0.1997024070835526  0.5001502653604516  0.5010372545737358   T   T   T
  0.2992171252723323  0.4001984793907872  0.5010346938482509   T   T   T
  0.1998648036766897  0.6000492034593956  0.4305400468961216   T   T   T
  0.2998077807087561  0.7000569577473793  0.4305461224022197   T   T   T
  0.1997997528093660  0.7001036509835576  0.5010426674456332   T   T   T
  0.2995045869584518  0.6001929166859917  0.5010960616535391   T   T   T
  0.1999066482275849  0.7999985353836381  0.4305348496952961   T   T   T
  0.2998999073793033  0.8999510336922218  0.4305445203233622   T   T   T
  0.1998108300614418  0.8998952979748085  0.5010253805256413   T   T   T
  0.2996933434097409  0.8001072745060158  0.5010349175918262   T   T   T
  0.3999333012915356  0.9998826393560316  0.4306300468772726   T   T   T
  0.5000648782189662  0.0998534417071613  0.4307362650238247   T   T   T
  0.3998416339881965  0.0983615217423004  0.5018462060943377   T   T   T
  0.5001202514664456  0.9996524600847980  0.5010803728243681   T   T   T
  0.4000087295920811  0.2000267749256137  0.4297337612732252   T   T   T
  0.5001419943320005  0.2999228718247356  0.4302322130921576   T   T   T
  0.3993432309086596  0.3016404111049538  0.5018226066493554   T   T   T
  0.5013939828751026  0.1992221468656444  0.5017516838332635   T   T   T
  0.3998606613761397  0.4000591622054547  0.4304273257593463   T   T   T
  0.4998881604143854  0.4999107300981127  0.4303085925664561   T   T   T
  0.3988659619867452  0.4999988360536600  0.5013025132229665   T   T   T
  0.4998018613207969  0.3994927846136340  0.5014031709448387   T   T   T
  0.3996673615129908  0.6000725360618112  0.4306107749344921   T   T   T
  0.4998447269087666  0.7002386148805606  0.4307230307464684   T   T   T
  0.3993681283987735  0.7004811974975788  0.5011347456040631   T   T   T
  0.4979733863610813  0.6009938767816678  0.5016328064039478   T   T   T
  0.3998479676248152  0.8000734695444920  0.4305377750206745   T   T   T
  0.4999535684252471  0.9000503457464349  0.4305475129832879   T   T   T
  0.3997728879791002  0.8999387967990514  0.5010688911067334   T   T   T
  0.4996242423639409  0.8004784194565925  0.5011003521456824   T   T   T
  0.6000921500464774  0.0000128167426389  0.4305152762753099   T   T   T
  0.7001624902575607  0.1000662494824646  0.4306482247784627   T   T   T
  0.6003228056721200  0.0992738657643246  0.5012139625404541   T   T   T
  0.7002360292539724  0.9998870443261496  0.5010735124502309   T   T   T
  0.6003284824351020  0.1998853704384814  0.4303110273816198   T   T   T
  0.7002914612667408  0.2997192912977152  0.4305467997998312   T   T   T
  0.6005498341653068  0.2993780490114102  0.5018309450276950   T   T   T
  0.7004555595253372  0.1993887314364753  0.5021534519435307   T   T   T
  0.6003435219500611  0.3993607078705219  0.4302587942018175   T   T   T
  0.7002852644571987  0.4997189953580435  0.4305166110337458   T   T   T
  0.6002533741621274  0.4980033692298220  0.5015959742138604   T   T   T
  0.7006110167106400  0.3988901978593746  0.5026090771702335   T   T   T
  0.6000244444700321  0.6001607796261740  0.4298673281304858   T   T   T
  0.7001771613043603  0.7002115490300356  0.4307608325764768   T   T   T
  0.5999965997202760  0.7021794409547942  0.5014866957134481   T   T   T
  0.7019237240681193  0.6009937504883486  0.5018484988350453   T   T   T
  0.6000321611631646  0.8003155348745735  0.4305521810951617   T   T   T
  0.7001094789022414  0.9001245423146819  0.4305498632977597   T   T   T
  0.6000999134350781  0.9001805810404516  0.5010593732177978   T   T   T
  0.7004452878366132  0.8005009607358563  0.5011042798097098   T   T   T
  0.8000890195847944  0.0000326450979456  0.4305600486501124   T   T   T
  0.9000177845546494  0.0999684086961443  0.4305968163604119   T   T   T
  0.8002568614477743  0.0995533237296689  0.5012453104844914   T   T   T
  0.9001910362191904  0.9998943165001448  0.5010544576118835   T   T   T
  0.8000365996370820  0.2000589731113420  0.4306295579575626   T   T   T
  0.8998579860013858  0.2999022549260479  0.4306691041841991   T   T   T
  0.8003227236237082  0.2995934911317683  0.5026197472759357   T   T   T
  0.9004197243188299  0.1997028863155002  0.5012066630375843   T   T   T
  0.7999978752185255  0.3996533455024362  0.4306722590068574   T   T   T
  0.9000902499213368  0.4999126650413520  0.4306488728328937   T   T   T
  0.8010608673240895  0.4999242594288827  0.5016332785088187   T   T   T
  0.9005187872442254  0.3998472564562922  0.5013239831160693   T   T   T
  0.8002872180998565  0.5999862847196851  0.4307027104263425   T   T   T
  0.9001646688291666  0.7000365438995646  0.4305587440630671   T   T   T
  0.8006275196481123  0.7004925123290812  0.5011501959033280   T   T   T
  0.9004299172057203  0.6001455296869841  0.5011375241750533   T   T   T
  0.8001587126190663  0.8001047113051825  0.4305455296455164   T   T   T
  0.9000851816406494  0.9000268327251707  0.4305435736882131   T   T   T
  0.8002631361215308  0.9001094223308440  0.5010453748480382   T   T   T
  0.9002643756300420  0.8001521832339406  0.5010310255314431   T   T   T
  0.0000000000000000  0.0000000000000000  0.2886110000000031   F   F   F
  0.1000000000000014  0.1000000000000014  0.2886110000000031   F   F   F
  0.0000000000000000  0.1000000000000014  0.3590739999999997   F   F   F
  0.1000000000000014  0.0000000000000000  0.3590739999999997   F   F   F
  0.0000000000000000  0.2000000000000028  0.2886110000000031   F   F   F
  0.1000000000000014  0.2999999999999972  0.2886110000000031   F   F   F
  0.0000000000000000  0.2999999999999972  0.3590739999999997   F   F   F
  0.1000000000000014  0.2000000000000028  0.3590739999999997   F   F   F
  0.0000000000000000  0.3999999999999986  0.2886110000000031   F   F   F
  0.1000000000000014  0.5000000000000000  0.2886110000000031   F   F   F
  0.0000000000000000  0.5000000000000000  0.3590739999999997   F   F   F
  0.1000000000000014  0.3999999999999986  0.3590739999999997   F   F   F
  0.0000000000000000  0.6000000000000014  0.2886110000000031   F   F   F
  0.1000000000000014  0.7000000000000028  0.2886110000000031   F   F   F
  0.0000000000000000  0.7000000000000028  0.3590739999999997   F   F   F
  0.1000000000000014  0.6000000000000014  0.3590739999999997   F   F   F
  0.0000000000000000  0.7999999999999972  0.2886110000000031   F   F   F
  0.1000000000000014  0.8999999999999986  0.2886110000000031   F   F   F
  0.0000000000000000  0.8999999999999986  0.3590739999999997   F   F   F
  0.1000000000000014  0.7999999999999972  0.3590739999999997   F   F   F
  0.2000000000000028  0.0000000000000000  0.2886110000000031   F   F   F
  0.2999999999999972  0.1000000000000014  0.2886110000000031   F   F   F
  0.2000000000000028  0.1000000000000014  0.3590739999999997   F   F   F
  0.2999999999999972  0.0000000000000000  0.3590739999999997   F   F   F
  0.2000000000000028  0.2000000000000028  0.2886110000000031   F   F   F
  0.2999999999999972  0.2999999999999972  0.2886110000000031   F   F   F
  0.2000000000000028  0.2999999999999972  0.3590739999999997   F   F   F
  0.2999999999999972  0.2000000000000028  0.3590739999999997   F   F   F
  0.2000000000000028  0.3999999999999986  0.2886110000000031   F   F   F
  0.2999999999999972  0.5000000000000000  0.2886110000000031   F   F   F
  0.2000000000000028  0.5000000000000000  0.3590739999999997   F   F   F
  0.2999999999999972  0.3999999999999986  0.3590739999999997   F   F   F
  0.2000000000000028  0.6000000000000014  0.2886110000000031   F   F   F
  0.2999999999999972  0.7000000000000028  0.2886110000000031   F   F   F
  0.2000000000000028  0.7000000000000028  0.3590739999999997   F   F   F
  0.2999999999999972  0.6000000000000014  0.3590739999999997   F   F   F
  0.2000000000000028  0.7999999999999972  0.2886110000000031   F   F   F
  0.2999999999999972  0.8999999999999986  0.2886110000000031   F   F   F
  0.2000000000000028  0.8999999999999986  0.3590739999999997   F   F   F
  0.2999999999999972  0.7999999999999972  0.3590739999999997   F   F   F
  0.3999999999999986  0.0000000000000000  0.2886110000000031   F   F   F
  0.5000000000000000  0.1000000000000014  0.2886110000000031   F   F   F
  0.3999999999999986  0.1000000000000014  0.3590739999999997   F   F   F
  0.5000000000000000  0.0000000000000000  0.3590739999999997   F   F   F
  0.3999999999999986  0.2000000000000028  0.2886110000000031   F   F   F
  0.5000000000000000  0.2999999999999972  0.2886110000000031   F   F   F
  0.3999999999999986  0.2999999999999972  0.3590739999999997   F   F   F
  0.5000000000000000  0.2000000000000028  0.3590739999999997   F   F   F
  0.3999999999999986  0.3999999999999986  0.2886110000000031   F   F   F
  0.5000000000000000  0.5000000000000000  0.2886110000000031   F   F   F
  0.3999999999999986  0.5000000000000000  0.3590739999999997   F   F   F
  0.5000000000000000  0.3999999999999986  0.3590739999999997   F   F   F
  0.3999999999999986  0.6000000000000014  0.2886110000000031   F   F   F
  0.5000000000000000  0.7000000000000028  0.2886110000000031   F   F   F
  0.3999999999999986  0.7000000000000028  0.3590739999999997   F   F   F
  0.5000000000000000  0.6000000000000014  0.3590739999999997   F   F   F
  0.3999999999999986  0.7999999999999972  0.2886110000000031   F   F   F
  0.5000000000000000  0.8999999999999986  0.2886110000000031   F   F   F
  0.3999999999999986  0.8999999999999986  0.3590739999999997   F   F   F
  0.5000000000000000  0.7999999999999972  0.3590739999999997   F   F   F
  0.6000000000000014  0.0000000000000000  0.2886110000000031   F   F   F
  0.7000000000000028  0.1000000000000014  0.2886110000000031   F   F   F
  0.6000000000000014  0.1000000000000014  0.3590739999999997   F   F   F
  0.7000000000000028  0.0000000000000000  0.3590739999999997   F   F   F
  0.6000000000000014  0.2000000000000028  0.2886110000000031   F   F   F
  0.7000000000000028  0.2999999999999972  0.2886110000000031   F   F   F
  0.6000000000000014  0.2999999999999972  0.3590739999999997   F   F   F
  0.7000000000000028  0.2000000000000028  0.3590739999999997   F   F   F
  0.6000000000000014  0.3999999999999986  0.2886110000000031   F   F   F
  0.7000000000000028  0.5000000000000000  0.2886110000000031   F   F   F
  0.6000000000000014  0.5000000000000000  0.3590739999999997   F   F   F
  0.7000000000000028  0.3999999999999986  0.3590739999999997   F   F   F
  0.6000000000000014  0.6000000000000014  0.2886110000000031   F   F   F
  0.7000000000000028  0.7000000000000028  0.2886110000000031   F   F   F
  0.6000000000000014  0.7000000000000028  0.3590739999999997   F   F   F
  0.7000000000000028  0.6000000000000014  0.3590739999999997   F   F   F
  0.6000000000000014  0.7999999999999972  0.2886110000000031   F   F   F
  0.7000000000000028  0.8999999999999986  0.2886110000000031   F   F   F
  0.6000000000000014  0.8999999999999986  0.3590739999999997   F   F   F
  0.7000000000000028  0.7999999999999972  0.3590739999999997   F   F   F
  0.7999999999999972  0.0000000000000000  0.2886110000000031   F   F   F
  0.8999999999999986  0.1000000000000014  0.2886110000000031   F   F   F
  0.7999999999999972  0.1000000000000014  0.3590739999999997   F   F   F
  0.8999999999999986  0.0000000000000000  0.3590739999999997   F   F   F
  0.7999999999999972  0.2000000000000028  0.2886110000000031   F   F   F
  0.8999999999999986  0.2999999999999972  0.2886110000000031   F   F   F
  0.7999999999999972  0.2999999999999972  0.3590739999999997   F   F   F
  0.8999999999999986  0.2000000000000028  0.3590739999999997   F   F   F
  0.7999999999999972  0.3999999999999986  0.2886110000000031   F   F   F
  0.8999999999999986  0.5000000000000000  0.2886110000000031   F   F   F
  0.7999999999999972  0.5000000000000000  0.3590739999999997   F   F   F
  0.8999999999999986  0.3999999999999986  0.3590739999999997   F   F   F
  0.7999999999999972  0.6000000000000014  0.2886110000000031   F   F   F
  0.8999999999999986  0.7000000000000028  0.2886110000000031   F   F   F
  0.7999999999999972  0.7000000000000028  0.3590739999999997   F   F   F
  0.8999999999999986  0.6000000000000014  0.3590739999999997   F   F   F
  0.7999999999999972  0.7999999999999972  0.2886110000000031   F   F   F
  0.8999999999999986  0.8999999999999986  0.2886110000000031   F   F   F
  0.7999999999999972  0.8999999999999986  0.3590739999999997   F   F   F
  0.8999999999999986  0.7999999999999972  0.3590739999999997   F   F   F
  0.0001316251841817  0.9998350845557796  0.5025091317162435   T   T   T
  0.1000189147324276  0.0998196987786862  0.5025249263031806   T   T   T
  0.0000805272536163  0.0999341532005490  0.4302724055428703   T   T   T
  0.1000567793310409 -0.0000350602993942  0.4302618653790706   T   T   T
  0.0002177137983721  0.1998223969706270  0.5025591648424189   T   T   T
  0.1000118651108479  0.2999628042622466  0.5025190738508549   T   T   T
  0.0000331304334093  0.2999563674368126  0.4303260008504534   T   T   T
  0.1000437070157885  0.1999496738411552  0.4302997085340966   T   T   T
  0.0001953503834039  0.4000228520785345  0.5025236564753511   T   T   T
  0.0999927332108412  0.5000948432636290  0.5024941209629503   T   T   T
  0.0000387637829769  0.5000231900125401  0.4302818186270992   T   T   T
  0.1000162487877148  0.3999729961724708  0.4302536872938327   T   T   T
  0.0001258955698809  0.6001194089783118  0.5025034275221426   T   T   T
  0.0999986678737852  0.7000850739491347  0.5025045495901683   T   T   T
  0.0000319469650810  0.7000220180399453  0.4302579844042986   T   T   T
  0.0999936326793251  0.6000402510909048  0.4302567222096180   T   T   T
  0.0001009307540418  0.8000310514329959  0.5025038709284917   T   T   T
  0.1000243189795529  0.8999324824577863  0.5025017845062864   T   T   T
  0.0000529353747566  0.8999639541398862  0.4302576199760217   T   T   T
  0.1000259900207398  0.8000116513503953  0.4302459248908405   T   T   T
  0.1999192196492674  0.9998572099539493  0.5024974279522595   T   T   T
  0.2998428697969617  0.0998351059613537  0.5027684447678133   T   T   T
  0.2000877596095187  0.1000526241800171  0.4303336579804147   T   T   T
  0.3000465197402833  0.0000449404549674  0.4303277770183883   T   T   T
  0.1996774914686387  0.1998747549248417  0.5026435296545152   T   T   T
  0.2995888671457635  0.2998960162177020  0.5024734762005659   T   T   T
  0.2000133992347695  0.2998387155701354  0.4302978419857993   T   T   T
  0.3006184601162452  0.1998854206553112  0.4309209701366626   T   T   T
  0.1997962961114803  0.4000509102706630  0.5024328577134527   T   T   T
  0.2995784734963425  0.5001839762504792  0.5024377915425059   T   T   T
  0.1999436077034277  0.5000467308278737  0.4302459731463740   T   T   T
  0.2998634985087633  0.4000064130339808  0.4301916215279648   T   T   T
  0.1998569755927663  0.6001403996861469  0.5024843926592022   T   T   T
  0.2998056353636158  0.7001443911085490  0.5025026469435093   T   T   T
  0.1999764403089632  0.7000293250845518  0.4302568187623602   T   T   T
  0.2999290444488307  0.6000783049639088  0.4302680842134214   T   T   T
  0.1999189513545548  0.8000160326569040  0.5024914535671355   T   T   T
  0.2998285161617454  0.8999276763924045  0.5024988987237147   T   T   T
  0.2000151379308527  0.8999950730511496  0.4302478915963226   T   T   T
  0.2999779612846741  0.7999746119580355  0.4302477061022663   T   T   T
  0.3997951030390375  0.9996004966165499  0.5026174066243637   T   T   T
  0.4997043773750812  0.0994048392335088  0.5023009673302077   T   T   T
  0.3998069871499161  0.1005880651009827  0.4309164706269315   T   T   T
  0.4997992050016077  0.9999192244415935  0.4302706060200310   T   T   T
  0.3990622867723518  0.1993804942079604  0.5074957348776209   T   T   T
  0.4996517414838549  0.2996492678288704  0.4999343541200359   T   T   T
  0.3996152231574728  0.2992776104404177  0.4306304261732481   T   T   T
  0.4990771637912951  0.1996036230530321  0.4306164616414815   T   T   T
  0.3990316923498174  0.4005553439253154  0.5015757627230961   T   T   T
  0.4995114266072178  0.5008741054007213  0.5022822245380509   T   T   T
  0.4000193034185929  0.5003066259039164  0.4303225637442247   T   T   T
  0.4997888128099365  0.4004281587014752  0.4300380977563418   T   T   T
  0.3994715960916839  0.6002376255058156  0.5025495804437468   T   T   T
  0.4998305001858954  0.7003733660569986  0.5026742491162323   T   T   T
  0.4000371545092348  0.6999728057307802  0.4303399304863577   T   T   T
  0.5005270885770117  0.6001110588503069  0.4308827652451343   T   T   T
  0.3998015688586236  0.8000950794966274  0.5024904571457245   T   T   T
  0.4998754562417935  0.8999526470771093  0.5024879231005271   T   T   T
  0.3999479541027909  0.8999658342454796  0.4302705546625398   T   T   T
  0.5000407261696934  0.7999511895807825  0.4303194917789671   T   T   T
  0.5999853556507987  0.9997256406021361  0.5024433620406508   T   T   T
  0.7001910500862716  0.0994391561419693  0.5023745348398460   T   T   T
  0.5998926743960022  0.0997916847290490  0.4301998175449081   T   T   T
  0.7000306778667890  0.9998861507359671  0.4302502274595884   T   T   T
  0.6000650965710570  0.1989189971043158  0.5012971969868106   T   T   T
  0.7004126458952661  0.2993476569810557  0.5007745663684708   T   T   T
  0.5999992705481895  0.2995368993375135  0.4298498378813160   T   T   T
  0.7002644344651003  0.1996011476909124  0.4302851423864694   T   T   T
  0.6002984744520080  0.3996354686403216  0.5000560793609283   T   T   T
  0.7004313981974352  0.5010015860545157  0.5026564678738079   T   T   T
  0.6000323586306735  0.5009867792388307  0.4308979908384654   T   T   T
  0.7002867686481210  0.4003632481013636  0.4303230919648710   T   T   T
  0.5998298187758815  0.6019080968773852  0.5059795191595029   T   T   T
  0.7000774486713645  0.7003435572538000  0.5027095967777101   T   T   T
  0.5999834589693130  0.6995971085906237  0.4307851245719880   T   T   T
  0.6994100846282664  0.6000744233928046  0.4309804502770223   T   T   T
  0.5999870582802568  0.8004243646659842  0.5025631630582875   T   T   T
  0.7001250996540113  0.8999744868123006  0.5024834055096467   T   T   T
  0.5999701955688101  0.8999676104029873  0.4302686530202121   T   T   T
  0.6999284727235708  0.7999542827423567  0.4303272111613533   T   T   T
  0.8002134107554161  0.9997701301641738  0.5025052694179648   T   T   T
  0.9003042443811399  0.0996899836695195  0.5025522235431595   T   T   T
  0.8001770912959325  0.0998864965518465  0.4303466871415705   T   T   T
  0.9000793758601892  0.9999117867654248  0.4302685371775817   T   T   T
  0.8007470840906933  0.1993093098109084  0.5027030004341930   T   T   T
  0.9005214114797998  0.2998181370555068  0.5027308534867813   T   T   T
  0.8003437878463954  0.2998878364939429  0.4304309715543002   T   T   T
  0.9001376975911005  0.1998968398998089  0.4303566220401495   T   T   T
  0.8007520906439144  0.4002107821661133  0.5023370625371362   T   T   T
  0.9003353153914058  0.5001259820533128  0.5025585075859630   T   T   T
  0.7999373882809798  0.5001995910775556  0.4305169582565612   T   T   T
  0.9000774089523953  0.4000184541293355  0.4303848178021463   T   T   T
  0.8004803599580279  0.6002908342827676  0.5026495341708428   T   T   T
  0.9001994609608823  0.7001582227354990  0.5025018463249180   T   T   T
  0.7999358700676247  0.6999440888598244  0.4303522686001593   T   T   T
  0.9000392527938350  0.6000539476869309  0.4303087773724457   T   T   T
  0.8001751351140602  0.8000969483633352  0.5024841211347392   T   T   T
  0.9001463345403429  0.8999322634267156  0.5024964793437653   T   T   T
  0.8000362557147700  0.8999322846362086  0.4302605540095670   T   T   T
  0.9000245624382331  0.7999702981697577  0.4302480547950212   T   T   T
  0.0000000000000000  0.0000000000000000  0.3590739999999997   F   F   F
  0.1000000000000014  0.1000000000000014  0.3590739999999997   F   F   F
  0.0000000000000000  0.1000000000000014  0.2886110000000031   F   F   F
  0.1000000000000014  0.0000000000000000  0.2886110000000031   F   F   F
  0.0000000000000000  0.2000000000000028  0.3590739999999997   F   F   F
  0.1000000000000014  0.2999999999999972  0.3590739999999997   F   F   F
  0.0000000000000000  0.2999999999999972  0.2886110000000031   F   F   F
  0.1000000000000014  0.2000000000000028  0.2886110000000031   F   F   F
  0.0000000000000000  0.3999999999999986  0.3590739999999997   F   F   F
  0.1000000000000014  0.5000000000000000  0.3590739999999997   F   F   F
  0.0000000000000000  0.5000000000000000  0.2886110000000031   F   F   F
  0.1000000000000014  0.3999999999999986  0.2886110000000031   F   F   F
  0.0000000000000000  0.6000000000000014  0.3590739999999997   F   F   F
  0.1000000000000014  0.7000000000000028  0.3590739999999997   F   F   F
  0.0000000000000000  0.7000000000000028  0.2886110000000031   F   F   F
  0.1000000000000014  0.6000000000000014  0.2886110000000031   F   F   F
  0.0000000000000000  0.7999999999999972  0.3590739999999997   F   F   F
  0.1000000000000014  0.8999999999999986  0.3590739999999997   F   F   F
  0.0000000000000000  0.8999999999999986  0.2886110000000031   F   F   F
  0.1000000000000014  0.7999999999999972  0.2886110000000031   F   F   F
  0.2000000000000028  0.0000000000000000  0.3590739999999997   F   F   F
  0.2999999999999972  0.1000000000000014  0.3590739999999997   F   F   F
  0.2000000000000028  0.1000000000000014  0.2886110000000031   F   F   F
  0.2999999999999972  0.0000000000000000  0.2886110000000031   F   F   F
  0.2000000000000028  0.2000000000000028  0.3590739999999997   F   F   F
  0.2999999999999972  0.2999999999999972  0.3590739999999997   F   F   F
  0.2000000000000028  0.2999999999999972  0.2886110000000031   F   F   F
  0.2999999999999972  0.2000000000000028  0.2886110000000031   F   F   F
  0.2000000000000028  0.3999999999999986  0.3590739999999997   F   F   F
  0.2999999999999972  0.5000000000000000  0.3590739999999997   F   F   F
  0.2000000000000028  0.5000000000000000  0.2886110000000031   F   F   F
  0.2999999999999972  0.3999999999999986  0.2886110000000031   F   F   F
  0.2000000000000028  0.6000000000000014  0.3590739999999997   F   F   F
  0.2999999999999972  0.7000000000000028  0.3590739999999997   F   F   F
  0.2000000000000028  0.7000000000000028  0.2886110000000031   F   F   F
  0.2999999999999972  0.6000000000000014  0.2886110000000031   F   F   F
  0.2000000000000028  0.7999999999999972  0.3590739999999997   F   F   F
  0.2999999999999972  0.8999999999999986  0.3590739999999997   F   F   F
  0.2000000000000028  0.8999999999999986  0.2886110000000031   F   F   F
  0.2999999999999972  0.7999999999999972  0.2886110000000031   F   F   F
  0.3999999999999986  0.0000000000000000  0.3590739999999997   F   F   F
  0.5000000000000000  0.1000000000000014  0.3590739999999997   F   F   F
  0.3999999999999986  0.1000000000000014  0.2886110000000031   F   F   F
  0.5000000000000000  0.0000000000000000  0.2886110000000031   F   F   F
  0.3999999999999986  0.2000000000000028  0.3590739999999997   F   F   F
  0.5000000000000000  0.2999999999999972  0.3590739999999997   F   F   F
  0.3999999999999986  0.2999999999999972  0.2886110000000031   F   F   F
  0.5000000000000000  0.2000000000000028  0.2886110000000031   F   F   F
  0.3999999999999986  0.3999999999999986  0.3590739999999997   F   F   F
  0.5000000000000000  0.5000000000000000  0.3590739999999997   F   F   F
  0.3999999999999986  0.5000000000000000  0.2886110000000031   F   F   F
  0.5000000000000000  0.3999999999999986  0.2886110000000031   F   F   F
  0.3999999999999986  0.6000000000000014  0.3590739999999997   F   F   F
  0.5000000000000000  0.7000000000000028  0.3590739999999997   F   F   F
  0.3999999999999986  0.7000000000000028  0.2886110000000031   F   F   F
  0.5000000000000000  0.6000000000000014  0.2886110000000031   F   F   F
  0.3999999999999986  0.7999999999999972  0.3590739999999997   F   F   F
  0.5000000000000000  0.8999999999999986  0.3590739999999997   F   F   F
  0.3999999999999986  0.8999999999999986  0.2886110000000031   F   F   F
  0.5000000000000000  0.7999999999999972  0.2886110000000031   F   F   F
  0.6000000000000014  0.0000000000000000  0.3590739999999997   F   F   F
  0.7000000000000028  0.1000000000000014  0.3590739999999997   F   F   F
  0.6000000000000014  0.1000000000000014  0.2886110000000031   F   F   F
  0.7000000000000028  0.0000000000000000  0.2886110000000031   F   F   F
  0.6000000000000014  0.2000000000000028  0.3590739999999997   F   F   F
  0.7000000000000028  0.2999999999999972  0.3590739999999997   F   F   F
  0.6000000000000014  0.2999999999999972  0.2886110000000031   F   F   F
  0.7000000000000028  0.2000000000000028  0.2886110000000031   F   F   F
  0.6000000000000014  0.3999999999999986  0.3590739999999997   F   F   F
  0.7000000000000028  0.5000000000000000  0.3590739999999997   F   F   F
  0.6000000000000014  0.5000000000000000  0.2886110000000031   F   F   F
  0.7000000000000028  0.3999999999999986  0.2886110000000031   F   F   F
  0.6000000000000014  0.6000000000000014  0.3590739999999997   F   F   F
  0.7000000000000028  0.7000000000000028  0.3590739999999997   F   F   F
  0.6000000000000014  0.7000000000000028  0.2886110000000031   F   F   F
  0.7000000000000028  0.6000000000000014  0.2886110000000031   F   F   F
  0.6000000000000014  0.7999999999999972  0.3590739999999997   F   F   F
  0.7000000000000028  0.8999999999999986  0.3590739999999997   F   F   F
  0.6000000000000014  0.8999999999999986  0.2886110000000031   F   F   F
  0.7000000000000028  0.7999999999999972  0.2886110000000031   F   F   F
  0.7999999999999972  0.0000000000000000  0.3590739999999997   F   F   F
  0.8999999999999986  0.1000000000000014  0.3590739999999997   F   F   F
  0.7999999999999972  0.1000000000000014  0.2886110000000031   F   F   F
  0.8999999999999986  0.0000000000000000  0.2886110000000031   F   F   F
  0.7999999999999972  0.2000000000000028  0.3590739999999997   F   F   F
  0.8999999999999986  0.2999999999999972  0.3590739999999997   F   F   F