Au                                      
   1.00000000000000     
    20.0000000000000000    0.0000000000000000    0.0000000000000000
     0.0000000000000000   20.0000000000000000    0.0000000000000000
     0.0000000000000000    0.0000000000000000   20.0000000000000000
   Au
     6
Direct
  0.5211367308871147  0.5735559062002977  0.4165399943126715
  0.4748523891156893  0.4585051402433464  0.4656762826840506
  0.5293216400325136  0.4258102240807133  0.5829624658892882
  0.4007618042249348  0.4743220391735932  0.5754565177538566
  0.6037227478499787  0.4871594671545694  0.4847797403896337
  0.3956954075347667  0.5656267371974693  0.4725863344004964
 
  0.00000000E+00  0.00000000E+00  0.00000000E+00
  0.00000000E+00  0.00000000E+00  0.00000000E+00
  0.00000000E+00  0.00000000E+00  0.00000000E+00
  0.00000000E+00  0.00000000E+00  0.00000000E+00
  0.00000000E+00  0.00000000E+00  0.00000000E+00
  0.00000000E+00  0.00000000E+00  0.00000000E+00
