Ag                                      
   1.0000000000000000     
    20.0000000000000000    0.0000000000000000    0.0000000000000000
     0.0000000000000000   20.0000000000000000    0.0000000000000000
     0.0000000000000000    0.0000000000000000   20.0000000000000000
   Ag
     8
Direct
  0.6532913932116502  0.4227515161646579  0.4559864489897782
  0.4316764854758372  0.5744396118011347  0.5187855248511799
  0.3440690069001105  0.5333668757657353  0.6123381699130822
  0.4535287390003772  0.4596637077727207  0.5859691681473349
  0.5636753213831012  0.3857969726826342  0.5569249680839926
  0.5444177730465275  0.4988591290452330  0.4882067855701708
  0.6317229897057546  0.5359800112197808  0.3897795959246028
  0.5205167347766435  0.6136387408131074  0.4239229816298603

  0.00000000E+00  0.00000000E+00  0.00000000E+00
  0.00000000E+00  0.00000000E+00  0.00000000E+00
  0.00000000E+00  0.00000000E+00  0.00000000E+00
  0.00000000E+00  0.00000000E+00  0.00000000E+00
  0.00000000E+00  0.00000000E+00  0.00000000E+00
  0.00000000E+00  0.00000000E+00  0.00000000E+00
  0.00000000E+00  0.00000000E+00  0.00000000E+00
  0.00000000E+00  0.00000000E+00  0.00000000E+00
