Ag Mg  O                                
   1.0000000000000000     
    21.1388521970183838    0.0000000000000000    0.0000000000000000
     0.0000000000000000   21.1388521970183838    0.0000000000000000
     0.0000000000000000    0.0000000000000000   22.1138852197018352
   Ag 
     4
Selective dynamics
Direct
  0.4000755413971757  0.4285395592330893  0.6103670471379263   T   T   T
  0.4002393247751588  0.5115047205703893  0.6973175796208848   T   T   T
  0.4005743167556541  0.6413294515579135  0.7129242977984035   T   T   T
  0.4002035301410666  0.5899757070888985  0.6044099267002787   T   T   T
