Au Mg  O                                
   1.00000000000000     
    21.1388521970183838    0.0000000000000000    0.0000000000000000
     0.0000000000000000   21.1388521970183838    0.0000000000000000
     0.0000000000000000    0.0000000000000000   22.1138852197018352
   Au
     4
Selective dynamics
Direct
  0.2895820369280386  0.5066118608007386  0.6377345019259124   T   T   T
  0.3968725997656435  0.4418290587980493  0.6178388190022801   T   T   T
  0.3970974370325138  0.5694284936041001  0.6092354940284395   T   T   T
  0.5049154995567591  0.5058234632903194  0.6365835675988905   T   T   T
 
  0.00000000E+00  0.00000000E+00  0.00000000E+00
  0.00000000E+00  0.00000000E+00  0.00000000E+00
  0.00000000E+00  0.00000000E+00  0.00000000E+00
  0.00000000E+00  0.00000000E+00  0.00000000E+00
