Au 
 1.0000000000000000
    21.1388521970183838    0.0000000000000000    0.0000000000000000
     0.0000000000000000   21.1388521970183838    0.0000000000000000
     0.0000000000000000    0.0000000000000000   22.1138852197018352
  Au
   2
Direct
  0.4499999882816468  0.4500000178365510  0.7191657116885800
  0.4499999882816468  0.4500000178365510  0.6052657263815090
