Mg  O                                   
   1.0000000000000000     
    21.1388521970183838    0.0000000000000000    0.0000000000000000
     0.0000000000000000   21.1388521970183838    0.0000000000000000
     0.0000000000000000    0.0000000000000000   30.0000000000000000
   Au   Mg   O 
    20   200   200
Selective dynamics
Direct
  0.4308025093558581  0.2267216047391493  0.5826801993645299   T   T   T
  0.5591148535005994  0.2368270404163004  0.5896357084265887   T   T   T
  0.6833835138594472  0.2515826905961154  0.5931214789197470   T   T   T
  0.8093512846233174  0.2595955318196425  0.5963219436193298   T   T   T
  0.4755670018494599  0.3483403824526478  0.5872102620651320   T   T   T
  0.6100585600425231  0.3628308245317518  0.5897976424853640   T   T   T
  0.7484795702080710  0.3726730978944324  0.5927258659820041   T   T   T
  0.5236224305789462  0.4665145828102804  0.5853254589281905   T   T   T
  0.6783421349823713  0.4775304463091224  0.5866746040828549   T   T   T
  0.5949654767610235  0.5756560150141860  0.5798120676199113   T   T   T
  0.4795312046736749  0.2688342280422892  0.6622026308203797   T   T   T
  0.6126637098515076  0.2773659676967260  0.6693870740900151   T   T   T
  0.7450745542409466  0.2971475855733701  0.6720324511543186   T   T   T
  0.5252239851124452  0.3989068079854843  0.6641205804385379   T   T   T
  0.6786770970307708  0.4127036083598901  0.6669823493671986   T   T   T
  0.5945920742854327  0.5149355761151093  0.6582712933440489   T   T   T
  0.5330014658259183  0.3180917476569258  0.7360095806200934   T   T   T
  0.6731111198517600  0.3332238869791465  0.7408143304824697   T   T   T
  0.5949504934170595  0.4463210337897958  0.7341049399486608   T   T   T
  0.5948045949671700  0.3681885127838859  0.8062202739768387   T   T   T
  0.0000191524070093 -0.0000349184458429  0.4297155844141445   F   F   F
  0.0999200895271722  0.0999440820652033  0.4297507432674212   F   F   F
  0.0000989356922931  0.0997625333374429  0.4997100811045029   F   F   F
  0.0998975331660982  0.9998433768810095  0.4996412997950375   F   F   F
 -0.0000000131189545  0.1999399975543344  0.4297692998051357   F   F   F
  0.0999028103805038  0.2999717234957026  0.4297686548698889   F   F   F
  0.0002409495302873  0.2998957448476638  0.4998168870770887   F   F   F
  0.0998356281991955  0.1998543439477350  0.4997384051042475   F   F   F
 -0.0000186534523363  0.3999683718804214  0.4297997482206674   F   F   F
  0.0999239637229572  0.5000374977086448  0.4297479211219145   F   F   F
  0.0001287176471715  0.5001101021358929  0.4997583327875245   F   F   F
  0.0998773939660608  0.4000861388951021  0.4997038812357004   F   F   F
  0.0000312696797586  0.6000418067567763  0.4297514051555007   F   F   F
  0.0999494275853784  0.7000481515463379  0.4297141346124684   F   F   F
  0.0001292581366085  0.7001668282047822  0.4996666625455667   F   F   F
  0.0999140675844746  0.6001490245501185  0.4996704995678312   F   F   F
  0.0000409664727427  0.8000402833508150  0.4297041432308217   F   F   F
  0.0999646006945426  0.8999913306764288  0.4296933318585067   F   F   F
  0.0000983853182015  0.8999782283236573  0.4996291630631989   F   F   F
  0.0999419190118011  0.8000545978117436  0.4996210664649951   F   F   F
  0.1998995905058667 -0.0000351809089535  0.4297194406515927   F   F   F
  0.2998745787431942  0.0999352348796558  0.4299763889575865   F   F   F
  0.1996169585033291  0.0996786702019340  0.4997700145274928   F   F   F
  0.2995581266467345  0.9996976717354756  0.4997549345291208   F   F   F
  0.1997895051769465  0.1999545878300198  0.4298160670425338   F   F   F
  0.2997886932018711  0.3000109046561402  0.4298842099924010   F   F   F
  0.1995476781228623  0.3001394215592609  0.4997571557364763   F   F   F
  0.2983742716488381  0.1999141426262824  0.5003121323622732   F   F   F
  0.1998256161299676  0.4000295103304696  0.4297213320430803   F   F   F
  0.2997258331938227  0.5000637276609384  0.4297425341973455   F   F   F
  0.1996696627915865  0.5001677407979311  0.4996927967510238   F   F   F
  0.2992131577988161  0.4001450046109273  0.4997554804796497   F   F   F
  0.1998439302581475  0.6000723148378052  0.4297323093994008   F   F   F
  0.2997873432016701  0.7000857577685490  0.4297331146476846   F   F   F
  0.1997530894688963  0.7001490099154283  0.4996474903841711   F   F   F
  0.2994621198442413  0.6002357104381736  0.4997460934877735   F   F   F
  0.1998834420768167  0.8000261012288210  0.4296968198324637   F   F   F
  0.2998634058104848  0.8999845712780006  0.4297230984508298   F   F   F
  0.1997671317503003  0.8999302669681980  0.4996236399614823   F   F   F
  0.2996266252006413  0.8001545677308673  0.4996474478066841   F   F   F
  0.3998779337026567  0.9998762973321492  0.4297981718928131   F   F   F
  0.4999945766306336  0.0997788840225787  0.4298389748824546   F   F   F
  0.3998012405028897  0.0984053933249584  0.5003325927934209   F   F   F
  0.5000201246165122  0.9996757727647779  0.4997259303269008   F   F   F
  0.3999323242287280  0.2000231821827047  0.4292492795137840   F   F   F
  0.4999862226246576  0.2998468961799620  0.4292164491544668   F   F   F
  0.3993046345803027  0.3016491788102673  0.5002424708772005   F   F   F
  0.5012210119323577  0.1991101869352128  0.4999330881427471   F   F   F
  0.3997455543271913  0.4000694168571532  0.4295406885368150   F   F   F
  0.4997396490935921  0.4999955986567680  0.4293655527957459   F   F   F
  0.3987451253324490  0.4999633767036913  0.4999685438744207   F   F   F
  0.4996507138475441  0.3993514849041728  0.4995811429704696   F   F   F
  0.3995876395861062  0.6000936844440952  0.4297654717765789   F   F   F
  0.4998088219984352  0.7002946406500559  0.4298354398859138   F   F   F
  0.3993059864367711  0.7005549188882242  0.4997784671856253   F   F   F
  0.4977928922297351  0.6011699002555532  0.5000692594680894   F   F   F
  0.3998184237225150  0.8001038260817877  0.4297239108624356   F   F   F
  0.4999098560008898  0.9000737869269806  0.4297399788563138   F   F   F
  0.3996839872988622  0.8999846095669136  0.4996998152486397   F   F   F
  0.4995585180024527  0.8005267472583779  0.4997375681463303   F   F   F
  0.6000506438793995 -0.0000229010213166  0.4297035536436153   F   F   F
  0.7001384340701624  0.0999276763654126  0.4298183205929271   F   F   F
  0.6001905965372295  0.0991937666484828  0.4998518084791335   F   F   F
  0.7002068874484836  0.9998471183607821  0.4997377547000558   F   F   F
  0.6002359059823994  0.1997245972390519  0.4293311208129106   F   F   F
  0.7002465890208200  0.2995821502931760  0.4294527531746221   F   F   F
  0.6003351977748137  0.2991334864349902  0.4998553771401450   F   F   F
  0.7003147776015003  0.1991045449880798  0.5004994271255939   F   F   F
  0.6002183280972162  0.3993647789842388  0.4291891971126522   F   F   F
  0.7002682278299293  0.4998947720355468  0.4295298513710976   F   F   F
  0.5999593494133042  0.4981499002520287  0.4997041091808468   F   F   F
  0.7003258097848661  0.3988006017104720  0.5005107200363277   F   F   F
  0.5999614505768509  0.6002860329024763  0.4292445775220576   F   F   F
  0.7001440912064276  0.7002811699985816  0.4298684348797672   F   F   F
  0.5999122098160705  0.7023122719090553  0.4999266937800772   F   F   F
  0.7018743389424495  0.6012863090648467  0.5002484404266677   F   F   F
  0.5999932941023955  0.8003722611666989  0.4297065624402138   F   F   F
  0.7000971058893806  0.9001191021280960  0.4297471900739532   F   F   F
  0.6000389402368491  0.9001917655403516  0.4996947252225548   F   F   F
  0.7003881353770188  0.8005361605205417  0.4997540128787804   F   F   F
  0.8001049296304280 -0.0000143926533139  0.4297569501720371   F   F   F
  0.9000556109959136  0.0999298240160500  0.4298053520268003   F   F   F
  0.8002813559382285  0.0993901672556750  0.4999517033668225   F   F   F
  0.9002397888107289  0.9998511684726854  0.4996925327598155   F   F   F
  0.8001116418668134  0.1999634175093961  0.4297558144966482   F   F   F
  0.8999320185625004  0.2999094177670052  0.4298467878958896   F   F   F
  0.8001882985320917  0.2997882214211419  0.5008087555742444   F   F   F
  0.9005385188134819  0.1996679066632416  0.4998700398989950   F   F   F
  0.8000662121381363  0.3997794890337519  0.4297353056801019   F   F   F
  0.9001079836009080  0.4999595841246119  0.4298646974727101   F   F   F
  0.8010912291530856  0.5000828493933893  0.5002986619809808   F   F   F
  0.9005702429044161  0.3998819088843336  0.5000793654408006   F   F   F
  0.8003051172433874  0.6000609192521789  0.4298653413460651   F   F   F
  0.9001347767506771  0.7000776634792359  0.4297571727806308   F   F   F
  0.8005908779149317  0.7005692058119992  0.4998275509482745   F   F   F
  0.9004239215908820  0.6002444534300010  0.4998268775991931   F   F   F
  0.8001338355569093  0.8001225622856349  0.4297380882903974   F   F   F
  0.9000832185775699  0.9000261753435884  0.4297204305527789   F   F   F
  0.8002693108374158  0.9001043477062749  0.4996826262143014   F   F   F
  0.9002693951082833  0.8001953810300956  0.4996622486175765   F   F   F
  0.0000000000000000  0.0000000000000000  0.2886110000000031   F   F   F
  0.1000000000000014  0.1000000000000014  0.2886110000000031   F   F   F
  0.0000000000000000  0.1000000000000014  0.3590739999999997   F   F   F
  0.1000000000000014  0.0000000000000000  0.3590739999999997   F   F   F
  0.0000000000000000  0.2000000000000028  0.2886110000000031   F   F   F
  0.1000000000000014  0.2999999999999972  0.2886110000000031   F   F   F
  0.0000000000000000  0.2999999999999972  0.3590739999999997   F   F   F
  0.1000000000000014  0.2000000000000028  0.3590739999999997   F   F   F
  0.0000000000000000  0.3999999999999986  0.2886110000000031   F   F   F
  0.1000000000000014  0.5000000000000000  0.2886110000000031   F   F   F
  0.0000000000000000  0.5000000000000000  0.3590739999999997   F   F   F
  0.1000000000000014  0.3999999999999986  0.3590739999999997   F   F   F
  0.0000000000000000  0.6000000000000014  0.2886110000000031   F   F   F
  0.1000000000000014  0.7000000000000028  0.2886110000000031   F   F   F
  0.0000000000000000  0.7000000000000028  0.3590739999999997   F   F   F
  0.1000000000000014  0.6000000000000014  0.3590739999999997   F   F   F
  0.0000000000000000  0.7999999999999972  0.2886110000000031   F   F   F
  0.1000000000000014  0.8999999999999986  0.2886110000000031   F   F   F
  0.0000000000000000  0.8999999999999986  0.3590739999999997   F   F   F
  0.1000000000000014  0.7999999999999972  0.3590739999999997   F   F   F
  0.2000000000000028  0.0000000000000000  0.2886110000000031   F   F   F
  0.2999999999999972  0.1000000000000014  0.2886110000000031   F   F   F
  0.2000000000000028  0.1000000000000014  0.3590739999999997   F   F   F
  0.2999999999999972  0.0000000000000000  0.3590739999999997   F   F   F
  0.2000000000000028  0.2000000000000028  0.2886110000000031   F   F   F
  0.2999999999999972  0.2999999999999972  0.2886110000000031   F   F   F
  0.2000000000000028  0.2999999999999972  0.3590739999999997   F   F   F
  0.2999999999999972  0.2000000000000028  0.3590739999999997   F   F   F
  0.2000000000000028  0.3999999999999986  0.2886110000000031   F   F   F
  0.2999999999999972  0.5000000000000000  0.2886110000000031   F   F   F
  0.2000000000000028  0.5000000000000000  0.3590739999999997   F   F   F
  0.2999999999999972  0.3999999999999986  0.3590739999999997   F   F   F
  0.2000000000000028  0.6000000000000014  0.2886110000000031   F   F   F
  0.2999999999999972  0.7000000000000028  0.2886110000000031   F   F   F
  0.2000000000000028  0.7000000000000028  0.3590739999999997   F   F   F
  0.2999999999999972  0.6000000000000014  0.3590739999999997   F   F   F
  0.2000000000000028  0.7999999999999972  0.2886110000000031   F   F   F
  0.2999999999999972  0.8999999999999986  0.2886110000000031   F   F   F
  0.2000000000000028  0.8999999999999986  0.3590739999999997   F   F   F
  0.2999999999999972  0.7999999999999972  0.3590739999999997   F   F   F
  0.3999999999999986  0.0000000000000000  0.2886110000000031   F   F   F
  0.5000000000000000  0.1000000000000014  0.2886110000000031   F   F   F
  0.3999999999999986  0.1000000000000014  0.3590739999999997   F   F   F
  0.5000000000000000  0.0000000000000000  0.3590739999999997   F   F   F
  0.3999999999999986  0.2000000000000028  0.2886110000000031   F   F   F
  0.5000000000000000  0.2999999999999972  0.2886110000000031   F   F   F
  0.3999999999999986  0.2999999999999972  0.3590739999999997   F   F   F
  0.5000000000000000  0.2000000000000028  0.3590739999999997   F   F   F
  0.3999999999999986  0.3999999999999986  0.2886110000000031   F   F   F
  0.5000000000000000  0.5000000000000000  0.2886110000000031   F   F   F
  0.3999999999999986  0.5000000000000000  0.3590739999999997   F   F   F
  0.5000000000000000  0.3999999999999986  0.3590739999999997   F   F   F
  0.3999999999999986  0.6000000000000014  0.2886110000000031   F   F   F
  0.5000000000000000  0.7000000000000028  0.2886110000000031   F   F   F
  0.3999999999999986  0.7000000000000028  0.3590739999999997   F   F   F
  0.5000000000000000  0.6000000000000014  0.3590739999999997   F   F   F
  0.3999999999999986  0.7999999999999972  0.2886110000000031   F   F   F
  0.5000000000000000  0.8999999999999986  0.2886110000000031   F   F   F
  0.3999999999999986  0.8999999999999986  0.3590739999999997   F   F   F
  0.5000000000000000  0.7999999999999972  0.3590739999999997   F   F   F
  0.6000000000000014  0.0000000000000000  0.2886110000000031   F   F   F
  0.7000000000000028  0.1000000000000014  0.2886110000000031   F   F   F
  0.6000000000000014  0.1000000000000014  0.3590739999999997   F   F   F
  0.7000000000000028  0.0000000000000000  0.3590739999999997   F   F   F
  0.6000000000000014  0.2000000000000028  0.2886110000000031   F   F   F
  0.7000000000000028  0.2999999999999972  0.2886110000000031   F   F   F
  0.6000000000000014  0.2999999999999972  0.3590739999999997   F   F   F
  0.7000000000000028  0.2000000000000028  0.3590739999999997   F   F   F
  0.6000000000000014  0.3999999999999986  0.2886110000000031   F   F   F
  0.7000000000000028  0.5000000000000000  0.2886110000000031   F   F   F
  0.6000000000000014  0.5000000000000000  0.3590739999999997   F   F   F
  0.7000000000000028  0.3999999999999986  0.3590739999999997   F   F   F
  0.6000000000000014  0.6000000000000014  0.2886110000000031   F   F   F
  0.7000000000000028  0.7000000000000028  0.2886110000000031   F   F   F
  0.6000000000000014  0.7000000000000028  0.3590739999999997   F   F   F
  0.7000000000000028  0.6000000000000014  0.3590739999999997   F   F   F
  0.6000000000000014  0.7999999999999972  0.2886110000000031   F   F   F
  0.7000000000000028  0.8999999999999986  0.2886110000000031   F   F   F
  0.6000000000000014  0.8999999999999986  0.3590739999999997   F   F   F
  0.7000000000000028  0.7999999999999972  0.3590739999999997   F   F   F
  0.7999999999999972  0.0000000000000000  0.2886110000000031   F   F   F
  0.8999999999999986  0.1000000000000014  0.2886110000000031   F   F   F
  0.7999999999999972  0.1000000000000014  0.3590739999999997   F   F   F
  0.8999999999999986  0.0000000000000000  0.3590739999999997   F   F   F
  0.7999999999999972  0.2000000000000028  0.2886110000000031   F   F   F
  0.8999999999999986  0.2999999999999972  0.2886110000000031   F   F   F
  0.7999999999999972  0.2999999999999972  0.3590739999999997   F   F   F
  0.8999999999999986  0.2000000000000028  0.3590739999999997   F   F   F
  0.7999999999999972  0.3999999999999986  0.2886110000000031   F   F   F
  0.8999999999999986  0.5000000000000000  0.2886110000000031   F   F   F
  0.7999999999999972  0.5000000000000000  0.3590739999999997   F   F   F
  0.8999999999999986  0.3999999999999986  0.3590739999999997   F   F   F
  0.7999999999999972  0.6000000000000014  0.2886110000000031   F   F   F
  0.8999999999999986  0.7000000000000028  0.2886110000000031   F   F   F
  0.7999999999999972  0.7000000000000028  0.3590739999999997   F   F   F
  0.8999999999999986  0.6000000000000014  0.3590739999999997   F   F   F
  0.7999999999999972  0.7999999999999972  0.2886110000000031   F   F   F
  0.8999999999999986  0.8999999999999986  0.2886110000000031   F   F   F
  0.7999999999999972  0.8999999999999986  0.3590739999999997   F   F   F
  0.8999999999999986  0.7999999999999972  0.3590739999999997   F   F   F
  0.0001475835874097  0.9998215822961674  0.5008109587197869   F   F   F
  0.0999970945752597  0.0998205055020534  0.5008595539318632   F   F   F
  0.0000626824391732  0.0999330574054782  0.4295125497162575   F   F   F
  0.1000443833876628 -0.0000182453156393  0.4294769629962757   F   F   F
  0.0002023663709900  0.1998240094456473  0.5009069129865068   F   F   F
  0.0999700770455212  0.2999673170116526  0.5008716927597819   F   F   F
 -0.0000100837786234  0.2999730107191899  0.4295667185009188   F   F   F
  0.1000104389377524  0.1999495888082763  0.4295258311060703   F   F   F
  0.0001466499745767  0.4000450730730660  0.5009015396105038   F   F   F
  0.0999412616269643  0.5001318441540028  0.5008389079594917   F   F   F
 -0.0000152018593060  0.5000361611596932  0.4295336934835176   F   F   F
  0.0999721608418948  0.3999916199710789  0.4295059213194649   F   F   F
  0.0000752418469366  0.6001703724769676  0.5008439468675400   F   F   F
  0.0999553621920985  0.7001263132452101  0.5008160299062271   F   F   F
 -0.0000041390544804  0.7000373786580428  0.4294966389008774   F   F   F
  0.0999521842207362  0.6000563358940263  0.4294926525307009   F   F   F
  0.0000853485101398  0.8000547710557223  0.5008147864905157   F   F   F
  0.1000025990148257  0.8999472670288191  0.5008036351404171   F   F   F
  0.0000440359143374  0.8999635847341657  0.4294641762886815   F   F   F
  0.0999888717434973  0.8000163686953143  0.4294670473057146   F   F   F
  0.1998676349337192  0.9998833602072000  0.5008324894685070   F   F   F
  0.2998232003577959  0.0998919316461642  0.5011369236052465   F   F   F
  0.2000631601616622  0.1000597850725597  0.4295721056843330   F   F   F
  0.3000019479105443  0.0000552102725580  0.4295533279074449   F   F   F
  0.1996458091561239  0.1998819519453476  0.5009847688630733   F   F   F
  0.2996099926444716  0.2998957861783421  0.5008582252386095   F   F   F
  0.1999749432338414  0.2998612847859514  0.4295376667556362   F   F   F
  0.3004772774617636  0.1999105822845530  0.4300519086787991   F   F   F
  0.1997553517207356  0.4000685529527015  0.5007953978989226   F   F   F
  0.2995448812041730  0.5001774876952698  0.5008091709327365   F   F   F
  0.1999067639821319  0.5000639288261620  0.4294941186437226   F   F   F
  0.2998144219430821  0.4000250583084659  0.4294345356432840   F   F   F
  0.1998206096850434  0.6001793824065440  0.5008225134506090   F   F   F
  0.2997648621578042  0.7001900111834568  0.5008286742181973   F   F   F
  0.1999385457247438  0.7000483986260098  0.4294798089133664   F   F   F
  0.2998960081217091  0.6000873988682318  0.4295146699425317   F   F   F
  0.1998579515288281  0.8000505975810801  0.5007949734587770   F   F   F
  0.2997597981665357  0.8999509061656636  0.5008237877661132   F   F   F
  0.1999856115825257  0.9000102477152910  0.4294714255902172   F   F   F
  0.2999417465210455  0.7999995149389975  0.4294836431338168   F   F   F
  0.3997096867217098  0.9996214248330230  0.5009581300329637   F   F   F
  0.4996370093253537  0.0994340127068429  0.5006263379270112   F   F   F
  0.3997713549822823  0.1005005958690521  0.4300389468322030   F   F   F
  0.4997520642170891 -0.0001031973812034  0.4294934089105122   F   F   F
  0.3991521881117429  0.1994731422109874  0.5046689355091626   F   F   F
  0.4996716296375976  0.2996828289285351  0.4980555215457938   F   F   F
  0.3995696888873495  0.2994099378442820  0.4297203834030919   F   F   F
  0.4991504723832385  0.1995661051956557  0.4296325549041649   F   F   F
  0.3991051301888606  0.4005363239351454  0.4998967763044076   F   F   F
  0.4995020371400595  0.5009371243176732  0.5005779302466689   F   F   F
  0.3999920510121402  0.5003036195315307  0.4295549308788055   F   F   F
  0.4997955641511960  0.4004894445028092  0.4291787055505878   F   F   F
  0.3994535153391970  0.6002079491874277  0.5008783079817917   F   F   F
  0.4997875993732818  0.7003736089105045  0.5009941142302020   F   F   F
  0.4000052250622710  0.6999834743124266  0.4295558835144253   F   F   F
  0.5003711565075609  0.6000910488561411  0.4299678467687268   F   F   F
  0.3997454605419138  0.8001390252268981  0.5008205056603082   F   F   F
  0.4998159663807526  0.8999717601083455  0.5008285115627779   F   F   F
  0.3998925271302677  0.8999744293851887  0.4295051735269623   F   F   F
  0.4999992000843761  0.7999794018646963  0.4295367555079256   F   F   F
  0.5999490613130812  0.9997048856369810  0.5007676748223581   F   F   F
  0.7001692818484336  0.0994064626375199  0.5007220979968379   F   F   F
  0.5998884422443063  0.0997017151609360  0.4293924225091692   F   F   F
  0.7000618734965495 -0.0001417615289408  0.4294930975522688   F   F   F
  0.5999111120751330  0.1987762652260148  0.4993699381330689   F   F   F
  0.7002074372019449  0.2993508645719354  0.4987188690250614   F   F   F
  0.5999776489963570  0.2995815653349085  0.4289389755978542   F   F   F
  0.7003010751351642  0.1995140909443428  0.4294576617485389   F   F   F
  0.6001938502341611  0.3997464794607448  0.4984195256219200   F   F   F
  0.7001994661810863  0.5011832277564442  0.5008693470615121   F   F   F
  0.5999922314664951  0.5008442427301738  0.4299469583825448   F   F   F
  0.7002425849053607  0.4004312938589710  0.4294885274359794   F   F   F
  0.5997831988693311  0.6020137657753861  0.5029408033286911   F   F   F
  0.6999995726476221  0.7003740903513231  0.5010410315979246   F   F   F
  0.5999541377891210  0.6997361403309419  0.4298588151011826   F   F   F
  0.6994976138737844  0.6000877104310451  0.4300616174652664   F   F   F
  0.5999303557971505  0.8004662178937597  0.5008623493345356   F   F   F
  0.7001102969315912  0.8999723492236690  0.5008431852372385   F   F   F
  0.5999436583857629  0.8999882079972946  0.4294902317538438   F   F   F
  0.6999165258561370  0.7999665097762615  0.4295516780069522   F   F   F
  0.8002397889963084  0.9997271480130988  0.5008612471288511   F   F   F
  0.9003103994853052  0.0996849065444065  0.5009456308265841   F   F   F
  0.8002015477384405  0.0998841361626009  0.4296058845563646   F   F   F
  0.9000871736386004  0.9999111746485329  0.4294989305235721   F   F   F
  0.8008011389942605  0.1992780939697049  0.5010972672605802   F   F   F
  0.9004632287733499  0.2998415048507319  0.5010891136240201   F   F   F
  0.8003397162981517  0.2999155507210570  0.4296302101422715   F   F   F
  0.9001232770606719  0.1999125979270121  0.4296005345968796   F   F   F
  0.8005842775088847  0.4003700266124399  0.5006336497425381   F   F   F
  0.9002753544172890  0.5001564193645233  0.5009859201865792   F   F   F
  0.7998703004425566  0.5002065824078187  0.4297613567472034   F   F   F
  0.9000171936570799  0.4000369722913206  0.4296559630744046   F   F   F
  0.8003648664995273  0.6002858958293023  0.5010144311184082   F   F   F
  0.9001571229014425  0.7001939303908624  0.5008646647208093   F   F   F
  0.7999133885010696  0.6999574142683178  0.4295986350691905   F   F   F
  0.8999958432180839  0.6000553761724154  0.4295667743833074   F   F   F
  0.8001568120278995  0.8001231666687010  0.5008439063587026   F   F   F
  0.9001709209735308  0.8999303476798085  0.5008220311849477   F   F   F
  0.8000444831696825  0.8999272816405229  0.4294981282514166   F   F   F
  0.9000103687153497  0.7999816951514331  0.4294974964582244   F   F   F
  0.0000000000000000  0.0000000000000000  0.3590739999999997   F   F   F
  0.1000000000000014  0.1000000000000014  0.3590739999999997   F   F   F
  0.0000000000000000  0.1000000000000014  0.2886110000000031   F   F   F
  0.1000000000000014  0.0000000000000000  0.2886110000000031   F   F   F
  0.0000000000000000  0.2000000000000028  0.3590739999999997   F   F   F
  0.1000000000000014  0.2999999999999972  0.3590739999999997   F   F   F
  0.0000000000000000  0.2999999999999972  0.2886110000000031   F   F   F
  0.1000000000000014  0.2000000000000028  0.2886110000000031   F   F   F
  0.0000000000000000  0.3999999999999986  0.3590739999999997   F   F   F
  0.1000000000000014  0.5000000000000000  0.3590739999999997   F   F   F
  0.0000000000000000  0.5000000000000000  0.2886110000000031   F   F   F
  0.1000000000000014  0.3999999999999986  0.2886110000000031   F   F   F
  0.0000000000000000  0.6000000000000014  0.3590739999999997   F   F   F
  0.1000000000000014  0.7000000000000028  0.3590739999999997   F   F   F
  0.0000000000000000  0.7000000000000028  0.2886110000000031   F   F   F
  0.1000000000000014  0.6000000000000014  0.2886110000000031   F   F   F
  0.0000000000000000  0.7999999999999972  0.3590739999999997   F   F   F
  0.1000000000000014  0.8999999999999986  0.3590739999999997   F   F   F
  0.0000000000000000  0.8999999999999986  0.2886110000000031   F   F   F
  0.1000000000000014  0.7999999999999972  0.2886110000000031   F   F   F
  0.2000000000000028  0.0000000000000000  0.3590739999999997   F   F   F
  0.2999999999999972  0.1000000000000014  0.3590739999999997   F   F   F
  0.2000000000000028  0.1000000000000014  0.2886110000000031   F   F   F
  0.2999999999999972  0.0000000000000000  0.2886110000000031   F   F   F
  0.2000000000000028  0.2000000000000028  0.3590739999999997   F   F   F
  0.2999999999999972  0.2999999999999972  0.3590739999999997   F   F   F
  0.2000000000000028  0.2999999999999972  0.2886110000000031   F   F   F
  0.2999999999999972  0.2000000000000028  0.2886110000000031   F   F   F
  0.2000000000000028  0.3999999999999986  0.3590739999999997   F   F   F
  0.2999999999999972  0.5000000000000000  0.3590739999999997   F   F   F
  0.2000000000000028  0.5000000000000000  0.2886110000000031   F   F   F
  0.2999999999999972  0.3999999999999986  0.2886110000000031   F   F   F
  0.2000000000000028  0.6000000000000014  0.3590739999999997   F   F   F
  0.2999999999999972  0.7000000000000028  0.3590739999999997   F   F   F
  0.2000000000000028  0.7000000000000028  0.2886110000000031   F   F   F
  0.2999999999999972  0.6000000000000014  0.2886110000000031   F   F   F
  0.2000000000000028  0.7999999999999972  0.3590739999999997   F   F   F
  0.2999999999999972  0.8999999999999986  0.3590739999999997   F   F   F
  0.2000000000000028  0.8999999999999986  0.2886110000000031   F   F   F
  0.2999999999999972  0.7999999999999972  0.2886110000000031   F   F   F
  0.3999999999999986  0.0000000000000000  0.3590739999999997   F   F   F
  0.5000000000000000  0.1000000000000014  0.3590739999999997   F   F   F
  0.3999999999999986  0.1000000000000014  0.2886110000000031   F   F   F
  0.5000000000000000  0.0000000000000000  0.2886110000000031   F   F   F
  0.3999999999999986  0.2000000000000028  0.3590739999999997   F   F   F
  0.5000000000000000  0.2999999999999972  0.3590739999999997   F   F   F
  0.3999999999999986  0.2999999999999972  0.2886110000000031   F   F   F
  0.5000000000000000  0.2000000000000028  0.2886110000000031   F   F   F
  0.3999999999999986  0.3999999999999986  0.3590739999999997   F   F   F
  0.5000000000000000  0.5000000000000000  0.3590739999999997   F   F   F
  0.3999999999999986  0.5000000000000000  0.2886110000000031   F   F   F
  0.5000000000000000  0.3999999999999986  0.2886110000000031   F   F   F
  0.3999999999999986  0.6000000000000014  0.3590739999999997   F   F   F
  0.5000000000000000  0.7000000000000028  0.3590739999999997   F   F   F
  0.3999999999999986  0.7000000000000028  0.2886110000000031   F   F   F
  0.5000000000000000  0.6000000000000014  0.2886110000000031   F   F   F
  0.3999999999999986  0.7999999999999972  0.3590739999999997   F   F   F
  0.5000000000000000  0.8999999999999986  0.3590739999999997   F   F   F
  0.3999999999999986  0.8999999999999986  0.2886110000000031   F   F   F
  0.5000000000000000  0.7999999999999972  0.2886110000000031   F   F   F
  0.6000000000000014  0.0000000000000000  0.3590739999999997   F   F   F
  0.7000000000000028  0.1000000000000014  0.3590739999999997   F   F   F
  0.6000000000000014  0.1000000000000014  0.2886110000000031   F   F   F
  0.7000000000000028  0.0000000000000000  0.2886110000000031   F   F   F
  0.6000000000000014  0.2000000000000028  0.3590739999999997   F   F   F
  0.7000000000000028  0.2999999999999972  0.3590739999999997   F   F   F
  0.6000000000000014  0.2999999999999972  0.2886110000000031   F   F   F
  0.7000000000000028  0.2000000000000028  0.2886110000000031   F   F   F
  0.6000000000000014  0.3999999999999986  0.3590739999999997   F   F   F
  0.7000000000000028  0.5000000000000000  0.3590739999999997   F   F   F
  0.6000000000000014  0.5000000000000000  0.2886110000000031   F   F   F
  0.7000000000000028  0.3999999999999986  0.2886110000000031   F   F   F
  0.6000000000000014  0.6000000000000014  0.3590739999999997   F   F   F
  0.7000000000000028  0.7000000000000028  0.3590739999999997   F   F   F
  0.6000000000000014  0.7000000000000028  0.2886110000000031   F   F   F
  0.7000000000000028  0.6000000000000014  0.2886110000000031   F   F   F
  0.6000000000000014  0.7999999999999972  0.3590739999999997   F   F   F
  0.7000000000000028  0.8999999999999986  0.3590739999999997   F   F   F
  0.6000000000000014  0.8999999999999986  0.2886110000000031   F   F   F
  0.7000000000000028  0.7999999999999972  0.2886110000000031   F   F   F
  0.7999999999999972  0.0000000000000000  0.3590739999999997   F   F   F
  0.8999999999999986  0.1000000000000014  0.3590739999999997   F   F   F
  0.7999999999999972  0.1000000000000014  0.2886110000000031   F   F   F
  0.8999999999999986  0.0000000000000000  0.2886110000000031   F   F   F
  0.7999999999999972  0.2000000000000028  0.3590739999999997   F   F   F
  0.8999999999999986  0.2999999999999972  0.3590739999999997   F   F   F