Mg  O                                   
   1.00000000000000     
    21.1388521970183838    0.0000000000000000    0.0000000000000000
     0.0000000000000000   21.1388521970183838    0.0000000000000000
     0.0000000000000000    0.0000000000000000   30.0000000000000000
   Au
    20
Selective dynamics
Direct
  0.4976534300701587  0.4333019184048510  0.6113989055962108   T   T   T
  0.3261910350583861  0.3139292308515067  0.5787384561101447   T   T   T
  0.5575461385106735  0.5445531290212244  0.5920903954261405   T   T   T
  0.5674273974895030  0.3236734130424921  0.6193425004191226   T   T   T
  0.4487370268658921  0.0960419496832472  0.6035883484886497   T   T   T
  0.6372577749846613  0.2139954249468587  0.6179854992789018   T   T   T
  0.5097512584131394  0.2099791653384742  0.6254089331032446   T   T   T
  0.4284835609481021  0.5417294301256348  0.5923080654072379   T   T   T
  0.6854776359699954  0.5489227110986477  0.5966501482839774   T   T   T
  0.5740934718406834  0.0994019147246377  0.6111213493603955   T   T   T
  0.3699835437786732  0.4306513598000308  0.6067705279626097   T   T   T
  0.8195337501286559  0.3349763117152591  0.5920350886867638   T   T   T
  0.4391484955463980  0.3195884813057432  0.6205537497583720   T   T   T
  0.2506553332785799  0.4166128043864887  0.5811646328878695   T   T   T
  0.6946567065275602  0.3279597285132212  0.6094468841805636   T   T   T
  0.6869341381937133  0.1121641337002970  0.5751674441763654   T   T   T
  0.6257400936279396  0.4357823967145791  0.6068002852435868   T   T   T
  0.7558772390446791  0.4440865021557201  0.5960686969952107   T   T   T
  0.4032531952273288  0.2100909332305037  0.5771511131217295   T   T   T
  0.7587922016301221  0.2206182139703543  0.5838574652438879   T   T   T
 
  0.00000000E+00  0.00000000E+00  0.00000000E+00
  0.00000000E+00  0.00000000E+00  0.00000000E+00
  0.00000000E+00  0.00000000E+00  0.00000000E+00
  0.00000000E+00  0.00000000E+00  0.00000000E+00
  0.00000000E+00  0.00000000E+00  0.00000000E+00
  0.00000000E+00  0.00000000E+00  0.00000000E+00
  0.00000000E+00  0.00000000E+00  0.00000000E+00
  0.00000000E+00  0.00000000E+00  0.00000000E+00
  0.00000000E+00  0.00000000E+00  0.00000000E+00
  0.00000000E+00  0.00000000E+00  0.00000000E+00
  0.00000000E+00  0.00000000E+00  0.00000000E+00
  0.00000000E+00  0.00000000E+00  0.00000000E+00
  0.00000000E+00  0.00000000E+00  0.00000000E+00
  0.00000000E+00  0.00000000E+00  0.00000000E+00
  0.00000000E+00  0.00000000E+00  0.00000000E+00
  0.00000000E+00  0.00000000E+00  0.00000000E+00
  0.00000000E+00  0.00000000E+00  0.00000000E+00
  0.00000000E+00  0.00000000E+00  0.00000000E+00
  0.00000000E+00  0.00000000E+00  0.00000000E+00
  0.00000000E+00  0.00000000E+00  0.00000000E+00
