Cu Mg  O                                
   1.0000000000000000     
    21.1388521970183838    0.0000000000000000    0.0000000000000000
     0.0000000000000000   21.1388521970183838    0.0000000000000000
     0.0000000000000000    0.0000000000000000   22.1138852197018352
   Cu   Mg   O 
     4   100   100
Selective dynamics
Direct
  0.4002292820752587  0.4213287017938114  0.5928940098417073   T   T   T
  0.4006262650917023  0.5057286488019130  0.6565974946215718   T   T   T
  0.4008508373886883  0.6135778707828123  0.6912101839945564   T   T   T
  0.4002489905959266  0.5942042823795148  0.5903158945820195   T   T   T
  0.0000000000000000  0.0000000000000000  0.4069841147579822   F   F   F
  0.1000000000000014  0.1000000000000014  0.4069841147579822   F   F   F
  0.0000000000000000  0.1000000000000014  0.5025749708513558   F   F   F
  0.1000000000000014  0.0000000000000000  0.5025749708513558   F   F   F
  0.0000000000000000  0.2000000000000028  0.4069841147579822   F   F   F
  0.1000000000000014  0.2999999999999972  0.4069841147579822   F   F   F
  0.0000000000000000  0.2999999999999972  0.5025749708513558   F   F   F
  0.1000000000000014  0.2000000000000028  0.5025749708513558   F   F   F
  0.0000000000000000  0.3999999999999986  0.4069841147579822   F   F   F
  0.1000000000000014  0.5000000000000000  0.4069841147579822   F   F   F
  0.0000000000000000  0.5000000000000000  0.5025749708513558   F   F   F
  0.1000000000000014  0.3999999999999986  0.5025749708513558   F   F   F
  0.0000000000000000  0.6000000000000014  0.4069841147579822   F   F   F
  0.1000000000000014  0.7000000000000028  0.4069841147579822   F   F   F
  0.0000000000000000  0.7000000000000028  0.5025749708513558   F   F   F
  0.1000000000000014  0.6000000000000014  0.5025749708513558   F   F   F
  0.0000000000000000  0.7999999999999972  0.4069841147579822   F   F   F
  0.1000000000000014  0.8999999999999986  0.4069841147579822   F   F   F
  0.0000000000000000  0.8999999999999986  0.5025749708513558   F   F   F
  0.1000000000000014  0.7999999999999972  0.5025749708513558   F   F   F
  0.2000000000000028  0.0000000000000000  0.4069841147579822   F   F   F
  0.2999999999999972  0.1000000000000014  0.4069841147579822   F   F   F
  0.2000000000000028  0.1000000000000014  0.5025749708513558   F   F   F
  0.2999999999999972  0.0000000000000000  0.5025749708513558   F   F   F
  0.2000000000000028  0.2000000000000028  0.4069841147579822   F   F   F
  0.2999999999999972  0.2999999999999972  0.4069841147579822   F   F   F
  0.2000000000000028  0.2999999999999972  0.5025749708513558   F   F   F
  0.2999999999999972  0.2000000000000028  0.5025749708513558   F   F   F
  0.2000000000000028  0.3999999999999986  0.4069841147579822   F   F   F
  0.2999999999999972  0.5000000000000000  0.4069841147579822   F   F   F
  0.2000000000000028  0.5000000000000000  0.5025749708513558   F   F   F
  0.2999999999999972  0.3999999999999986  0.5025749708513558   F   F   F
  0.2000000000000028  0.6000000000000014  0.4069841147579822   F   F   F
  0.2999999999999972  0.7000000000000028  0.4069841147579822   F   F   F
  0.2000000000000028  0.7000000000000028  0.5025749708513558   F   F   F
  0.2999999999999972  0.6000000000000014  0.5025749708513558   F   F   F
  0.2000000000000028  0.7999999999999972  0.4069841147579822   F   F   F
  0.2999999999999972  0.8999999999999986  0.4069841147579822   F   F   F
  0.2000000000000028  0.8999999999999986  0.5025749708513558   F   F   F
  0.2999999999999972  0.7999999999999972  0.5025749708513558   F   F   F
  0.3999999999999986  0.0000000000000000  0.4069841147579822   F   F   F
  0.5000000000000000  0.1000000000000014  0.4069841147579822   F   F   F
  0.3999999999999986  0.1000000000000014  0.5025749708513558   F   F   F
  0.5000000000000000  0.0000000000000000  0.5025749708513558   F   F   F
  0.3999999999999986  0.2000000000000028  0.4069841147579822   F   F   F
  0.5000000000000000  0.2999999999999972  0.4069841147579822   F   F   F
  0.3999999999999986  0.2999999999999972  0.5025749708513558   F   F   F
  0.5000000000000000  0.2000000000000028  0.5025749708513558   F   F   F
  0.3999999999999986  0.3999999999999986  0.4069841147579822   F   F   F
  0.5000000000000000  0.5000000000000000  0.4069841147579822   F   F   F
  0.3999999999999986  0.5000000000000000  0.5025749708513558   F   F   F
  0.5000000000000000  0.3999999999999986  0.5025749708513558   F   F   F
  0.3999999999999986  0.6000000000000014  0.4069841147579822   F   F   F
  0.5000000000000000  0.7000000000000028  0.4069841147579822   F   F   F
  0.3999999999999986  0.7000000000000028  0.5025749708513558   F   F   F
  0.5000000000000000  0.6000000000000014  0.5025749708513558   F   F   F
  0.3999999999999986  0.7999999999999972  0.4069841147579822   F   F   F
  0.5000000000000000  0.8999999999999986  0.4069841147579822   F   F   F
  0.3999999999999986  0.8999999999999986  0.5025749708513558   F   F   F
  0.5000000000000000  0.7999999999999972  0.5025749708513558   F   F   F
  0.6000000000000014  0.0000000000000000  0.4069841147579822   F   F   F
  0.7000000000000028  0.1000000000000014  0.4069841147579822   F   F   F
  0.6000000000000014  0.1000000000000014  0.5025749708513558   F   F   F
  0.7000000000000028  0.0000000000000000  0.5025749708513558   F   F   F
  0.6000000000000014  0.2000000000000028  0.4069841147579822   F   F   F
  0.7000000000000028  0.2999999999999972  0.4069841147579822   F   F   F
  0.6000000000000014  0.2999999999999972  0.5025749708513558   F   F   F
  0.7000000000000028  0.2000000000000028  0.5025749708513558   F   F   F
  0.6000000000000014  0.3999999999999986  0.4069841147579822   F   F   F
  0.7000000000000028  0.5000000000000000  0.4069841147579822   F   F   F
  0.6000000000000014  0.5000000000000000  0.5025749708513558   F   F   F
  0.7000000000000028  0.3999999999999986  0.5025749708513558   F   F   F
  0.6000000000000014  0.6000000000000014  0.4069841147579822   F   F   F
  0.7000000000000028  0.7000000000000028  0.4069841147579822   F   F   F
  0.6000000000000014  0.7000000000000028  0.5025749708513558   F   F   F
  0.7000000000000028  0.6000000000000014  0.5025749708513558   F   F   F
  0.6000000000000014  0.7999999999999972  0.4069841147579822   F   F   F
  0.7000000000000028  0.8999999999999986  0.4069841147579822   F   F   F
  0.6000000000000014  0.8999999999999986  0.5025749708513558   F   F   F
  0.7000000000000028  0.7999999999999972  0.5025749708513558   F   F   F
  0.7999999999999972  0.0000000000000000  0.4069841147579822   F   F   F
  0.8999999999999986  0.1000000000000014  0.4069841147579822   F   F   F
  0.7999999999999972  0.1000000000000014  0.5025749708513558   F   F   F
  0.8999999999999986  0.0000000000000000  0.5025749708513558   F   F   F
  0.7999999999999972  0.2000000000000028  0.4069841147579822   F   F   F
  0.8999999999999986  0.2999999999999972  0.4069841147579822   F   F   F
  0.7999999999999972  0.2999999999999972  0.5025749708513558   F   F   F
  0.8999999999999986  0.2000000000000028  0.5025749708513558   F   F   F
  0.7999999999999972  0.3999999999999986  0.4069841147579822   F   F   F
  0.8999999999999986  0.5000000000000000  0.4069841147579822   F   F   F
  0.7999999999999972  0.5000000000000000  0.5025749708513558   F   F   F
  0.8999999999999986  0.3999999999999986  0.5025749708513558   F   F   F
  0.7999999999999972  0.6000000000000014  0.4069841147579822   F   F   F
  0.8999999999999986  0.7000000000000028  0.4069841147579822   F   F   F
  0.7999999999999972  0.7000000000000028  0.5025749708513558   F   F   F
  0.8999999999999986  0.6000000000000014  0.5025749708513558   F   F   F
  0.7999999999999972  0.7999999999999972  0.4069841147579822   F   F   F
  0.8999999999999986  0.8999999999999986  0.4069841147579822   F   F   F
  0.7999999999999972  0.8999999999999986  0.5025749708513558   F   F   F
  0.8999999999999986  0.7999999999999972  0.5025749708513558   F   F   F
  0.0000000000000000  0.0000000000000000  0.5025749708513558   F   F   F
  0.1000000000000014  0.1000000000000014  0.5025749708513558   F   F   F
  0.0000000000000000  0.1000000000000014  0.4069841147579822   F   F   F
  0.1000000000000014  0.0000000000000000  0.4069841147579822   F   F   F
  0.0000000000000000  0.2000000000000028  0.5025749708513558   F   F   F
  0.1000000000000014  0.2999999999999972  0.5025749708513558   F   F   F
  0.0000000000000000  0.2999999999999972  0.4069841147579822   F   F   F
  0.1000000000000014  0.2000000000000028  0.4069841147579822   F   F   F
  0.0000000000000000  0.3999999999999986  0.5025749708513558   F   F   F
  0.1000000000000014  0.5000000000000000  0.5025749708513558   F   F   F
  0.0000000000000000  0.5000000000000000  0.4069841147579822   F   F   F
  0.1000000000000014  0.3999999999999986  0.4069841147579822   F   F   F
  0.0000000000000000  0.6000000000000014  0.5025749708513558   F   F   F
  0.1000000000000014  0.7000000000000028  0.5025749708513558   F   F   F
  0.0000000000000000  0.7000000000000028  0.4069841147579822   F   F   F
  0.1000000000000014  0.6000000000000014  0.4069841147579822   F   F   F
  0.0000000000000000  0.7999999999999972  0.5025749708513558   F   F   F
  0.1000000000000014  0.8999999999999986  0.5025749708513558   F   F   F
  0.0000000000000000  0.8999999999999986  0.4069841147579822   F   F   F
  0.1000000000000014  0.7999999999999972  0.4069841147579822   F   F   F
  0.2000000000000028  0.0000000000000000  0.5025749708513558   F   F   F
  0.2999999999999972  0.1000000000000014  0.5025749708513558   F   F   F
  0.2000000000000028  0.1000000000000014  0.4069841147579822   F   F   F
  0.2999999999999972  0.0000000000000000  0.4069841147579822   F   F   F
  0.2000000000000028  0.2000000000000028  0.5025749708513558   F   F   F
  0.2999999999999972  0.2999999999999972  0.5025749708513558   F   F   F
  0.2000000000000028  0.2999999999999972  0.4069841147579822   F   F   F
  0.2999999999999972  0.2000000000000028  0.4069841147579822   F   F   F
  0.2000000000000028  0.3999999999999986  0.5025749708513558   F   F   F
  0.2999999999999972  0.5000000000000000  0.5025749708513558   F   F   F
  0.2000000000000028  0.5000000000000000  0.4069841147579822   F   F   F
  0.2999999999999972  0.3999999999999986  0.4069841147579822   F   F   F
  0.2000000000000028  0.6000000000000014  0.5025749708513558   F   F   F
  0.2999999999999972  0.7000000000000028  0.5025749708513558   F   F   F
  0.2000000000000028  0.7000000000000028  0.4069841147579822   F   F   F
  0.2999999999999972  0.6000000000000014  0.4069841147579822   F   F   F
  0.2000000000000028  0.7999999999999972  0.5025749708513558   F   F   F
  0.2999999999999972  0.8999999999999986  0.5025749708513558   F   F   F
  0.2000000000000028  0.8999999999999986  0.4069841147579822   F   F   F
  0.2999999999999972  0.7999999999999972  0.4069841147579822   F   F   F
  0.3999999999999986  0.0000000000000000  0.5025749708513558   F   F   F
  0.5000000000000000  0.1000000000000014  0.5025749708513558   F   F   F
  0.3999999999999986  0.1000000000000014  0.4069841147579822   F   F   F
  0.5000000000000000  0.0000000000000000  0.4069841147579822   F   F   F
  0.3999999999999986  0.2000000000000028  0.5025749708513558   F   F   F
  0.5000000000000000  0.2999999999999972  0.5025749708513558   F   F   F
  0.3999999999999986  0.2999999999999972  0.4069841147579822   F   F   F
  0.5000000000000000  0.2000000000000028  0.4069841147579822   F   F   F
  0.3999999999999986  0.3999999999999986  0.5025749708513558   F   F   F
  0.5000000000000000  0.5000000000000000  0.5025749708513558   F   F   F
  0.3999999999999986  0.5000000000000000  0.4069841147579822   F   F   F
  0.5000000000000000  0.3999999999999986  0.4069841147579822   F   F   F
  0.3999999999999986  0.6000000000000014  0.5025749708513558   F   F   F
  0.5000000000000000  0.7000000000000028  0.5025749708513558   F   F   F
  0.3999999999999986  0.7000000000000028  0.4069841147579822   F   F   F
  0.5000000000000000  0.6000000000000014  0.4069841147579822   F   F   F
  0.3999999999999986  0.7999999999999972  0.5025749708513558   F   F   F
  0.5000000000000000  0.8999999999999986  0.5025749708513558   F   F   F
  0.3999999999999986  0.8999999999999986  0.4069841147579822   F   F   F
  0.5000000000000000  0.7999999999999972  0.4069841147579822   F   F   F
  0.6000000000000014  0.0000000000000000  0.5025749708513558   F   F   F
  0.7000000000000028  0.1000000000000014  0.5025749708513558   F   F   F
  0.6000000000000014  0.1000000000000014  0.4069841147579822   F   F   F
  0.7000000000000028  0.0000000000000000  0.4069841147579822   F   F   F
  0.6000000000000014  0.2000000000000028  0.5025749708513558   F   F   F
  0.7000000000000028  0.2999999999999972  0.5025749708513558   F   F   F
  0.6000000000000014  0.2999999999999972  0.4069841147579822   F   F   F
  0.7000000000000028  0.2000000000000028  0.4069841147579822   F   F   F
  0.6000000000000014  0.3999999999999986  0.5025749708513558   F   F   F
  0.7000000000000028  0.5000000000000000  0.5025749708513558   F   F   F
  0.6000000000000014  0.5000000000000000  0.4069841147579822   F   F   F
  0.7000000000000028  0.3999999999999986  0.4069841147579822   F   F   F
  0.6000000000000014  0.6000000000000014  0.5025749708513558   F   F   F
  0.7000000000000028  0.7000000000000028  0.5025749708513558   F   F   F
  0.6000000000000014  0.7000000000000028  0.4069841147579822   F   F   F
  0.7000000000000028  0.6000000000000014  0.4069841147579822   F   F   F
  0.6000000000000014  0.7999999999999972  0.5025749708513558   F   F   F
  0.7000000000000028  0.8999999999999986  0.5025749708513558   F   F   F
  0.6000000000000014  0.8999999999999986  0.4069841147579822   F   F   F
  0.7000000000000028  0.7999999999999972  0.4069841147579822   F   F   F
  0.7999999999999972  0.0000000000000000  0.5025749708513558   F   F   F
  0.8999999999999986  0.1000000000000014  0.5025749708513558   F   F   F
  0.7999999999999972  0.1000000000000014  0.4069841147579822   F   F   F
  0.8999999999999986  0.0000000000000000  0.4069841147579822   F   F   F
  0.7999999999999972  0.2000000000000028  0.5025749708513558   F   F   F
  0.8999999999999986  0.2999999999999972  0.5025749708513558   F   F   F
  0.7999999999999972  0.2999999999999972  0.4069841147579822   F   F   F
  0.8999999999999986  0.2000000000000028  0.4069841147579822   F   F   F
  0.7999999999999972  0.3999999999999986  0.5025749708513558   F   F   F
  0.8999999999999986  0.5000000000000000  0.5025749708513558   F   F   F
  0.7999999999999972  0.5000000000000000  0.4069841147579822   F   F   F
  0.8999999999999986  0.3999999999999986  0.4069841147579822   F   F   F
  0.7999999999999972  0.6000000000000014  0.5025749708513558   F   F   F
  0.8999999999999986  0.7000000000000028  0.5025749708513558   F   F   F
  0.7999999999999972  0.7000000000000028  0.4069841147579822   F   F   F
  0.8999999999999986  0.6000000000000014  0.4069841147579822   F   F   F
  0.7999999999999972  0.7999999999999972  0.5025749708513558   F   F   F
  0.8999999999999986  0.8999999999999986  0.5025749708513558   F   F   F
  0.7999999999999972  0.8999999999999986  0.4069841147579822   F   F   F
  0.8999999999999986  0.7999999999999972  0.4069841147579822   F   F   F

  0.00000000E+00  0.00000000E+00  0.00000000E+00
  0.00000000E+00  0.00000000E+00  0.00000000E+00
  0.00000000E+00  0.00000000E+00  0.00000000E+00
  0.00000000E+00  0.00000000E+00  0.00000000E+00
  0.00000000E+00  0.00000000E+00  0.00000000E+00
  0.00000000E+00  0.00000000E+00  0.00000000E+00
  0.00000000E+00  0.00000000E+00  0.00000000E+00
  0.00000000E+00  0.00000000E+00  0.00000000E+00
  0.00000000E+00  0.00000000E+00  0.00000000E+00
  0.00000000E+00  0.00000000E+00  0.00000000E+00
  0.00000000E+00  0.00000000E+00  0.00000000E+00
  0.00000000E+00  0.00000000E+00  0.00000000E+00
  0.00000000E+00  0.00000000E+00  0.00000000E+00
  0.00000000E+00  0.00000000E+00  0.00000000E+00
  0.00000000E+00  0.00000000E+00  0.00000000E+00
  0.00000000E+00  0.00000000E+00  0.00000000E+00
  0.00000000E+00  0.00000000E+00  0.00000000E+00
  0.00000000E+00  0.00000000E+00  0.00000000E+00
  0.00000000E+00  0.00000000E+00  0.00000000E+00
  0.00000000E+00  0.00000000E+00  0.00000000E+00
  0.00000000E+00  0.00000000E+00  0.00000000E+00
  0.00000000E+00  0.00000000E+00  0.00000000E+00
  0.00000000E+00  0.00000000E+00  0.00000000E+00
  0.00000000E+00  0.00000000E+00  0.00000000E+00
  0.00000000E+00  0.00000000E+00  0.00000000E+00
  0.00000000E+00  0.00000000E+00  0.00000000E+00
  0.00000000E+00  0.00000000E+00  0.00000000E+00
  0.00000000E+00  0.00000000E+00  0.00000000E+00
  0.00000000E+00  0.00000000E+00  0.00000000E+00
  0.00000000E+00  0.00000000E+00  0.00000000E+00
  0.00000000E+00  0.00000000E+00  0.00000000E+00
  0.00000000E+00  0.00000000E+00  0.00000000E+00
  0.00000000E+00  0.00000000E+00  0.00000000E+00
  0.00000000E+00  0.00000000E+00  0.00000000E+00
  0.00000000E+00  0.00000000E+00  0.00000000E+00
  0.00000000E+00  0.00000000E+00  0.00000000E+00
  0.00000000E+00  0.00000000E+00  0.00000000E+00
  0.00000000E+00  0.00000000E+00  0.00000000E+00
  0.00000000E+00  0.00000000E+00  0.00000000E+00
  0.00000000E+00  0.00000000E+00  0.00000000E+00
  0.00000000E+00  0.00000000E+00  0.00000000E+00
  0.00000000E+00  0.00000000E+00  0.00000000E+00
  0.00000000E+00  0.00000000E+00  0.00000000E+00
  0.00000000E+00  0.00000000E+00  0.00000000E+00
  0.00000000E+00  0.00000000E+00  0.00000000E+00
  0.00000000E+00  0.00000000E+00  0.00000000E+00
  0.00000000E+00  0.00000000E+00  0.00000000E+00
  0.00000000E+00  0.00000000E+00  0.00000000E+00
  0.00000000E+00  0.00000000E+00  0.00000000E+00
  0.00000000E+00  0.00000000E+00  0.00000000E+00
  0.00000000E+00  0.00000000E+00  0.00000000E+00
  0.00000000E+00  0.00000000E+00  0.00000000E+00
  0.00000000E+00  0.00000000E+00  0.00000000E+00
  0.00000000E+00  0.00000000E+00  0.00000000E+00
  0.00000000E+00  0.00000000E+00  0.00000000E+00
  0.00000000E+00  0.00000000E+00  0.00000000E+00
  0.00000000E+00  0.00000000E+00  0.00000000E+00
  0.00000000E+00  0.00000000E+00  0.00000000E+00
  0.00000000E+00  0.00000000E+00  0.00000000E+00
  0.00000000E+00  0.00000000E+00  0.00000000E+00
  0.00000000E+00  0.00000000E+00  0.00000000E+00
  0.00000000E+00  0.00000000E+00  0.00000000E+00
  0.00000000E+00  0.00000000E+00  0.00000000E+00
  0.00000000E+00  0.00000000E+00  0.00000000E+00
  0.00000000E+00  0.00000000E+00  0.00000000E+00
  0.00000000E+00  0.00000000E+00  0.00000000E+00
  0.00000000E+00  0.00000000E+00  0.00000000E+00
  0.00000000E+00  0.00000000E+00  0.00000000E+00
  0.00000000E+00  0.00000000E+00  0.00000000E+00
  0.00000000E+00  0.00000000E+00  0.00000000E+00
  0.00000000E+00  0.00000000E+00  0.00000000E+00
  0.00000000E+00  0.00000000E+00  0.00000000E+00
  0.00000000E+00  0.00000000E+00  0.00000000E+00
  0.00000000E+00  0.00000000E+00  0.00000000E+00
  0.00000000E+00  0.00000000E+00  0.00000000E+00
  0.00000000E+00  0.00000000E+00  0.00000000E+00
  0.00000000E+00  0.00000000E+00  0.00000000E+00
  0.00000000E+00  0.00000000E+00  0.00000000E+00
  0.00000000E+00  0.00000000E+00  0.00000000E+00
  0.00000000E+00  0.00000000E+00  0.00000000E+00
  0.00000000E+00  0.00000000E+00  0.00000000E+00
  0.00000000E+00  0.00000000E+00  0.00000000E+00
  0.00000000E+00  0.00000000E+00  0.00000000E+00
  0.00000000E+00  0.00000000E+00  0.00000000E+00
  0.00000000E+00  0.00000000E+00  0.00000000E+00
  0.00000000E+00  0.00000000E+00  0.00000000E+00
  0.00000000E+00  0.00000000E+00  0.00000000E+00
  0.00000000E+00  0.00000000E+00  0.00000000E+00
  0.00000000E+00  0.00000000E+00  0.00000000E+00
  0.00000000E+00  0.00000000E+00  0.00000000E+00
  0.00000000E+00  0.00000000E+00  0.00000000E+00
  0.00000000E+00  0.00000000E+00  0.00000000E+00
  0.00000000E+00  0.00000000E+00  0.00000000E+00
  0.00000000E+00  0.00000000E+00  0.00000000E+00
  0.00000000E+00  0.00000000E+00  0.00000000E+00
  0.00000000E+00  0.00000000E+00  0.00000000E+00
  0.00000000E+00  0.00000000E+00  0.00000000E+00
  0.00000000E+00  0.00000000E+00  0.00000000E+00
  0.00000000E+00  0.00000000E+00  0.00000000E+00
  0.00000000E+00  0.00000000E+00  0.00000000E+00
  0.00000000E+00  0.00000000E+00  0.00000000E+00
  0.00000000E+00  0.00000000E+00  0.00000000E+00
  0.00000000E+00  0.00000000E+00  0.00000000E+00
  0.00000000E+00  0.00000000E+00  0.00000000E+00
  0.00000000E+00  0.00000000E+00  0.00000000E+00
  0.00000000E+00  0.00000000E+00  0.00000000E+00
  0.00000000E+00  0.00000000E+00  0.00000000E+00
  0.00000000E+00  0.00000000E+00  0.00000000E+00
  0.00000000E+00  0.00000000E+00  0.00000000E+00
  0.00000000E+00  0.00000000E+00  0.00000000E+00
  0.00000000E+00  0.00000000E+00  0.00000000E+00
  0.00000000E+00  0.00000000E+00  0.00000000E+00
  0.00000000E+00  0.00000000E+00  0.00000000E+00
  0.00000000E+00  0.00000000E+00  0.00000000E+00
  0.00000000E+00  0.00000000E+00  0.00000000E+00
  0.00000000E+00  0.00000000E+00  0.00000000E+00
  0.00000000E+00  0.00000000E+00  0.00000000E+00
  0.00000000E+00  0.00000000E+00  0.00000000E+00
  0.00000000E+00  0.00000000E+00  0.00000000E+00
  0.00000000E+00  0.00000000E+00  0.00000000E+00
  0.00000000E+00  0.00000000E+00  0.00000000E+00
  0.00000000E+00  0.00000000E+00  0.00000000E+00
  0.00000000E+00  0.00000000E+00  0.00000000E+00
  0.00000000E+00  0.00000000E+00  0.00000000E+00
  0.00000000E+00  0.00000000E+00  0.00000000E+00
  0.00000000E+00  0.00000000E+00  0.00000000E+00
  0.00000000E+00  0.00000000E+00  0.00000000E+00
  0.00000000E+00  0.00000000E+00  0.00000000E+00
  0.00000000E+00  0.00000000E+00  0.00000000E+00
  0.00000000E+00  0.00000000E+00  0.00000000E+00
  0.00000000E+00  0.00000000E+00  0.00000000E+00
  0.00000000E+00  0.00000000E+00  0.00000000E+00
  0.00000000E+00  0.00000000E+00  0.00000000E+00
  0.00000000E+00  0.00000000E+00  0.00000000E+00
  0.00000000E+00  0.00000000E+00  0.00000000E+00
  0.00000000E+00  0.00000000E+00  0.00000000E+00
  0.00000000E+00  0.00000000E+00  0.00000000E+00
  0.00000000E+00  0.00000000E+00  0.00000000E+00
  0.00000000E+00  0.00000000E+00  0.00000000E+00
  0.00000000E+00  0.00000000E+00  0.00000000E+00
  0.00000000E+00  0.00000000E+00  0.00000000E+00
  0.00000000E+00  0.00000000E+00  0.00000000E+00
  0.00000000E+00  0.00000000E+00  0.00000000E+00
  0.00000000E+00  0.00000000E+00  0.00000000E+00
  0.00000000E+00  0.00000000E+00  0.00000000E+00
  0.00000000E+00  0.00000000E+00  0.00000000E+00
  0.00000000E+00  0.00000000E+00  0.00000000E+00
  0.00000000E+00  0.00000000E+00  0.00000000E+00
  0.00000000E+00  0.00000000E+00  0.00000000E+00
  0.00000000E+00  0.00000000E+00  0.00000000E+00
  0.00000000E+00  0.00000000E+00  0.00000000E+00
  0.00000000E+00  0.00000000E+00  0.00000000E+00
  0.00000000E+00  0.00000000E+00  0.00000000E+00
  0.00000000E+00  0.00000000E+00  0.00000000E+00
  0.00000000E+00  0.00000000E+00  0.00000000E+00
  0.00000000E+00  0.00000000E+00  0.00000000E+00
  0.00000000E+00  0.00000000E+00  0.00000000E+00
  0.00000000E+00  0.00000000E+00  0.00000000E+00
  0.00000000E+00  0.00000000E+00  0.00000000E+00
  0.00000000E+00  0.00000000E+00  0.00000000E+00
  0.00000000E+00  0.00000000E+00  0.00000000E+00
  0.00000000E+00  0.00000000E+00  0.00000000E+00
  0.00000000E+00  0.00000000E+00  0.00000000E+00
  0.00000000E+00  0.00000000E+00  0.00000000E+00
  0.00000000E+00  0.00000000E+00  0.00000000E+00
  0.00000000E+00  0.00000000E+00  0.00000000E+00
  0.00000000E+00  0.00000000E+00  0.00000000E+00
  0.00000000E+00  0.00000000E+00  0.00000000E+00
  0.00000000E+00  0.00000000E+00  0.00000000E+00
  0.00000000E+00  0.00000000E+00  0.00000000E+00
  0.00000000E+00  0.00000000E+00  0.00000000E+00
  0.00000000E+00  0.00000000E+00  0.00000000E+00
  0.00000000E+00  0.00000000E+00  0.00000000E+00
  0.00000000E+00  0.00000000E+00  0.00000000E+00
  0.00000000E+00  0.00000000E+00  0.00000000E+00
  0.00000000E+00  0.00000000E+00  0.00000000E+00
  0.00000000E+00  0.00000000E+00  0.00000000E+00
  0.00000000E+00  0.00000000E+00  0.00000000E+00
  0.00000000E+00  0.00000000E+00  0.00000000E+00
  0.00000000E+00  0.00000000E+00  0.00000000E+00
  0.00000000E+00  0.00000000E+00  0.00000000E+00
  0.00000000E+00  0.00000000E+00  0.00000000E+00
  0.00000000E+00  0.00000000E+00  0.00000000E+00
  0.00000000E+00  0.00000000E+00  0.00000000E+00
  0.00000000E+00  0.00000000E+00  0.00000000E+00
  0.00000000E+00  0.00000000E+00  0.00000000E+00
  0.00000000E+00  0.00000000E+00  0.00000000E+00
  0.00000000E+00  0.00000000E+00  0.00000000E+00
  0.00000000E+00  0.00000000E+00  0.00000000E+00
  0.00000000E+00  0.00000000E+00  0.00000000E+00
  0.00000000E+00  0.00000000E+00  0.00000000E+00
  0.00000000E+00  0.00000000E+00  0.00000000E+00
  0.00000000E+00  0.00000000E+00  0.00000000E+00
  0.00000000E+00  0.00000000E+00  0.00000000E+00
  0.00000000E+00  0.00000000E+00  0.00000000E+00
  0.00000000E+00  0.00000000E+00  0.00000000E+00
  0.00000000E+00  0.00000000E+00  0.00000000E+00
  0.00000000E+00  0.00000000E+00  0.00000000E+00
  0.00000000E+00  0.00000000E+00  0.00000000E+00
  0.00000000E+00  0.00000000E+00  0.00000000E+00
  0.00000000E+00  0.00000000E+00  0.00000000E+00
  0.00000000E+00  0.00000000E+00  0.00000000E+00
  0.00000000E+00  0.00000000E+00  0.00000000E+00
  0.00000000E+00  0.00000000E+00  0.00000000E+00
