cu4                                     
   1.00000000000000     
    20.0000000000000000    0.0000000000000000    0.0000000000000000
     0.0000000000000000   20.0000000000000000    0.0000000000000000
     0.0000000000000000    0.0000000000000000   20.0000000000000000
   Cu
     4
Direct
  0.0254538049596746  0.0170121945342174  0.0472710494208357
  0.9744816918465915  0.9830544143963635  0.9527370515951006
  0.9400883486696685  0.9358046743972963  0.0553699242510035
  0.0599761545240654  0.0641287166771320  0.9446219747330602
 
  0.00000000E+00  0.00000000E+00  0.00000000E+00
  0.00000000E+00  0.00000000E+00  0.00000000E+00
  0.00000000E+00  0.00000000E+00  0.00000000E+00
  0.00000000E+00  0.00000000E+00  0.00000000E+00
