au8                                     
   1.0000000000000000     
    20.0000000000000000    0.0000000000000000    0.0000000000000000
     0.0000000000000000   20.0000000000000000    0.0000000000000000
     0.0000000000000000    0.0000000000000000   20.0000000000000000
   Au
     8
Direct
  0.0079058464973386  0.9971901629879654  0.9971901629879654
  0.1400000000000006  0.9924150643606335  0.9924150643606335
  0.2720941535026626  0.9971901629879654  0.9971901629879654
  0.0728556319725897  0.1163110411243424  0.0080783075577178
  0.2071443680274114  0.1163110411243424  0.0080783075577178
  0.1400000000000006  0.1274258622993179  0.1274258622993179
  0.0728556319725897  0.0080783075577178  0.1163110411243424
  0.2071443680274114  0.0080783075577178  0.1163110411243424

  0.00000000E+00  0.00000000E+00  0.00000000E+00
  0.00000000E+00  0.00000000E+00  0.00000000E+00
  0.00000000E+00  0.00000000E+00  0.00000000E+00
  0.00000000E+00  0.00000000E+00  0.00000000E+00
  0.00000000E+00  0.00000000E+00  0.00000000E+00
  0.00000000E+00  0.00000000E+00  0.00000000E+00
  0.00000000E+00  0.00000000E+00  0.00000000E+00
  0.00000000E+00  0.00000000E+00  0.00000000E+00
