Au Mg  O                                
   1.0000000000000000     
    21.1388521970183838    0.0000000000000000    0.0000000000000000
     0.0000000000000000   21.1388521970183838    0.0000000000000000
     0.0000000000000000    0.0000000000000000   22.1138852197018352
   Au  
     4 
Selective dynamics
Direct
  0.3999512008044346  0.4252429537329045  0.6033019755531901   T   T   T
  0.3999572962124070  0.5096751291862434  0.6841795809377500   T   T   T
  0.4000533549375037  0.6325841737763951  0.7131450520288247   T   T   T
  0.3999724663981484  0.6047599388569959  0.5999630435646126   T   T   T
