au4                                     
   1.0000000000000000     
    20.0000000000000000    0.0000000000000000    0.0000000000000000
     0.0000000000000000   20.0000000000000000    0.0000000000000000
     0.0000000000000000    0.0000000000000000   20.0000000000000000
   Au
     4
Direct
  0.9388892099510945  0.0129272279227031  0.0130019187627565
  0.0612977098770693  0.9864587463171395  0.9872388168196432
  0.1219594340092986  0.9599484923023902  0.8804763916670301
  0.8778536461575425  0.0406655334527650  0.1192828727505702

  0.00000000E+00  0.00000000E+00  0.00000000E+00
  0.00000000E+00  0.00000000E+00  0.00000000E+00
  0.00000000E+00  0.00000000E+00  0.00000000E+00
  0.00000000E+00  0.00000000E+00  0.00000000E+00
