cu4                                     
   1.0000000000000000     
    20.0000000000000000    0.0000000000000000    0.0000000000000000
     0.0000000000000000   20.0000000000000000    0.0000000000000000
     0.0000000000000000    0.0000000000000000   20.0000000000000000
   Cu
     4
Direct
  0.0254538049596739  0.0170121945342155  0.0472710494208377
  0.9744816918465911  0.9830544143963604  0.9527370515950984
  0.9400883486696714  0.9358046743972938  0.0553699242510064
  0.0599761545240637  0.0641287166771323  0.9446219747330574

  0.00000000E+00  0.00000000E+00  0.00000000E+00
  0.00000000E+00  0.00000000E+00  0.00000000E+00
  0.00000000E+00  0.00000000E+00  0.00000000E+00
  0.00000000E+00  0.00000000E+00  0.00000000E+00
