SYSTEM=MgO-rocksalt
ISMEAR=0
SIGMA=0.05
EDIFF=1E-6
ALGO=ALL
ISTART=0
IBRION=-1
NSW=0
ISYM=2

GGA=RE
IVDW=12
VDW_A1=0.5238
VDW_S8=2.3550
VDW_A2=3.5016

ENCUT=520
PREC=Accurate  #default (Normal) usually safe, structures/energies change little with Accurate
LASPH=.TRUE.
LREAL=Auto
ISPIN=1
NELM=200
NELMIN=8
NCORE=4
KPAR=1
LWAVE=.FALSE.
LCHARG=.FALSE.
