Au                                      
   1.00000000000000     
    20.0000000000000000    0.0000000000000000    0.0000000000000000
     0.0000000000000000   20.0000000000000000    0.0000000000000000
     0.0000000000000000    0.0000000000000000   20.0000000000000000
   Au
     6
Direct
  0.5270531827768963  0.5302091522011807  0.5583225216740146
  0.3988180069396847  0.5735150079898403  0.5569152068557344
  0.4645287407705467  0.5449330407490294  0.4419561977226323
  0.4206673342814327  0.4392007655882963  0.5281070050862269
  0.5351302765155523  0.4224169933762312  0.4643327967946789
  0.5998938132858811  0.5440564628904241  0.4450270409317056
 
  0.00000000E+00  0.00000000E+00  0.00000000E+00
  0.00000000E+00  0.00000000E+00  0.00000000E+00
  0.00000000E+00  0.00000000E+00  0.00000000E+00
  0.00000000E+00  0.00000000E+00  0.00000000E+00
  0.00000000E+00  0.00000000E+00  0.00000000E+00
  0.00000000E+00  0.00000000E+00  0.00000000E+00
