Cu 
 1.0000000000000000
    21.1388521970183838    0.0000000000000000    0.0000000000000000
     0.0000000000000000   21.1388521970183838    0.0000000000000000
     0.0000000000000000    0.0000000000000000   22.1138852197018352
  Cu
   2
Direct
  0.5375491667176141  0.4624508332354048  0.6176736911815373
  0.4624508332823859  0.5375491666706259  0.6176736911815373
