Cu                                      
   1.00000000000000     
    20.0000000000000000    0.0000000000000000    0.0000000000000000
     0.0000000000000000   20.0000000000000000    0.0000000000000000
     0.0000000000000000    0.0000000000000000   20.0000000000000000
   Cu
     6
Direct
  0.4638616045081321  0.3629438603956245  0.5390414335903486
  0.5268074329168044  0.5243548437252628  0.4546383028275400
  0.4731470779478357  0.4756748703750375  0.5454371315605684
  0.5190290086898699  0.4100653655977879  0.4452282411834503
  0.5361241651430362  0.6370774397109074  0.4609110589786880
  0.4809623960243172  0.5899649681053845  0.5547535413444038
 
  0.00000000E+00  0.00000000E+00  0.00000000E+00
  0.00000000E+00  0.00000000E+00  0.00000000E+00
  0.00000000E+00  0.00000000E+00  0.00000000E+00
  0.00000000E+00  0.00000000E+00  0.00000000E+00
  0.00000000E+00  0.00000000E+00  0.00000000E+00
  0.00000000E+00  0.00000000E+00  0.00000000E+00
