Au Mg  O 
 1.0000000000000000
    21.1388521970183838    0.0000000000000000    0.0000000000000000
     0.0000000000000000   21.1388521970183838    0.0000000000000000
     0.0000000000000000    0.0000000000000000   22.1138852197018352
  Au  Mg   O
   2 100 100
Direct
  0.6607314513810564  0.5000000001879528  0.6135783895939322
  0.5392684774606921  0.5000000001879528  0.6135783895939322
  0.0000000000000000  0.0000000000000000  0.4069841147579821
  0.1000000000000014  0.1000000000000014  0.4069841147579821
  0.0000000000000000  0.1000000000000014  0.5025749708513558
  0.1000000000000014  0.0000000000000000  0.5025749708513558
  0.0000000000000000  0.2000000000000028  0.4069841147579821
  0.1000000000000014  0.2999999999999972  0.4069841147579821
  0.0000000000000000  0.2999999999999972  0.5025749708513558
  0.1000000000000014  0.2000000000000028  0.5025749708513558
  0.0000000000000000  0.3999999999999986  0.4069841147579821
  0.1000000000000014  0.5000000000000000  0.4069841147579821
  0.0000000000000000  0.5000000000000000  0.5025749708513558
  0.1000000000000014  0.3999999999999986  0.5025749708513558
  0.0000000000000000  0.6000000000000014  0.4069841147579821
  0.1000000000000014  0.7000000000000028  0.4069841147579821
  0.0000000000000000  0.7000000000000028  0.5025749708513558
  0.1000000000000014  0.6000000000000014  0.5025749708513558
  0.0000000000000000  0.7999999999999972  0.4069841147579821
  0.1000000000000014  0.8999999999999987  0.4069841147579821
  0.0000000000000000  0.8999999999999987  0.5025749708513558
  0.1000000000000014  0.7999999999999972  0.5025749708513558
  0.2000000000000028  0.0000000000000000  0.4069841147579821
  0.2999999999999972  0.1000000000000014  0.4069841147579821
  0.2000000000000028  0.1000000000000014  0.5025749708513558
  0.2999999999999972  0.0000000000000000  0.5025749708513558
  0.2000000000000028  0.2000000000000028  0.4069841147579821
  0.2999999999999972  0.2999999999999972  0.4069841147579821
  0.2000000000000028  0.2999999999999972  0.5025749708513558
  0.2999999999999972  0.2000000000000028  0.5025749708513558
  0.2000000000000028  0.3999999999999986  0.4069841147579821
  0.2999999999999972  0.5000000000000000  0.4069841147579821
  0.2000000000000028  0.5000000000000000  0.5025749708513558
  0.2999999999999972  0.3999999999999986  0.5025749708513558
  0.2000000000000028  0.6000000000000014  0.4069841147579821
  0.2999999999999972  0.7000000000000028  0.4069841147579821
  0.2000000000000028  0.7000000000000028  0.5025749708513558
  0.2999999999999972  0.6000000000000014  0.5025749708513558
  0.2000000000000028  0.7999999999999972  0.4069841147579821
  0.2999999999999972  0.8999999999999987  0.4069841147579821
  0.2000000000000028  0.8999999999999987  0.5025749708513558
  0.2999999999999972  0.7999999999999972  0.5025749708513558
  0.3999999999999986  0.0000000000000000  0.4069841147579821
  0.5000000000000000  0.1000000000000014  0.4069841147579821
  0.3999999999999986  0.1000000000000014  0.5025749708513558
  0.5000000000000000  0.0000000000000000  0.5025749708513558
  0.3999999999999986  0.2000000000000028  0.4069841147579821
  0.5000000000000000  0.2999999999999972  0.4069841147579821
  0.3999999999999986  0.2999999999999972  0.5025749708513558
  0.5000000000000000  0.2000000000000028  0.5025749708513558
  0.3999999999999986  0.3999999999999986  0.4069841147579821
  0.5000000000000000  0.5000000000000000  0.4069841147579821
  0.3999999999999986  0.5000000000000000  0.5025749708513558
  0.5000000000000000  0.3999999999999986  0.5025749708513558
  0.3999999999999986  0.6000000000000014  0.4069841147579821
  0.5000000000000000  0.7000000000000028  0.4069841147579821
  0.3999999999999986  0.7000000000000028  0.5025749708513558
  0.5000000000000000  0.6000000000000014  0.5025749708513558
  0.3999999999999986  0.7999999999999972  0.4069841147579821
  0.5000000000000000  0.8999999999999987  0.4069841147579821
  0.3999999999999986  0.8999999999999987  0.5025749708513558
  0.5000000000000000  0.7999999999999972  0.5025749708513558
  0.6000000000000014  0.0000000000000000  0.4069841147579821
  0.7000000000000028  0.1000000000000014  0.4069841147579821
  0.6000000000000014  0.1000000000000014  0.5025749708513558
  0.7000000000000028  0.0000000000000000  0.5025749708513558
  0.6000000000000014  0.2000000000000028  0.4069841147579821
  0.7000000000000028  0.2999999999999972  0.4069841147579821
  0.6000000000000014  0.2999999999999972  0.5025749708513558
  0.7000000000000028  0.2000000000000028  0.5025749708513558
  0.6000000000000014  0.3999999999999986  0.4069841147579821
  0.7000000000000028  0.5000000000000000  0.4069841147579821
  0.6000000000000014  0.5000000000000000  0.5025749708513558
  0.7000000000000028  0.3999999999999986  0.5025749708513558
  0.6000000000000014  0.6000000000000014  0.4069841147579821
  0.7000000000000028  0.7000000000000028  0.4069841147579821
  0.6000000000000014  0.7000000000000028  0.5025749708513558
  0.7000000000000028  0.6000000000000014  0.5025749708513558
  0.6000000000000014  0.7999999999999972  0.4069841147579821
  0.7000000000000028  0.8999999999999987  0.4069841147579821
  0.6000000000000014  0.8999999999999987  0.5025749708513558
  0.7000000000000028  0.7999999999999972  0.5025749708513558
  0.7999999999999972  0.0000000000000000  0.4069841147579821
  0.8999999999999987  0.1000000000000014  0.4069841147579821
  0.7999999999999972  0.1000000000000014  0.5025749708513558
  0.8999999999999987  0.0000000000000000  0.5025749708513558
  0.7999999999999972  0.2000000000000028  0.4069841147579821
  0.8999999999999987  0.2999999999999972  0.4069841147579821
  0.7999999999999972  0.2999999999999972  0.5025749708513558
  0.8999999999999987  0.2000000000000028  0.5025749708513558
  0.7999999999999972  0.3999999999999986  0.4069841147579821
  0.8999999999999987  0.5000000000000000  0.4069841147579821
  0.7999999999999972  0.5000000000000000  0.5025749708513558
  0.8999999999999987  0.3999999999999986  0.5025749708513558
  0.7999999999999972  0.6000000000000014  0.4069841147579821
  0.8999999999999987  0.7000000000000028  0.4069841147579821
  0.7999999999999972  0.7000000000000028  0.5025749708513558
  0.8999999999999987  0.6000000000000014  0.5025749708513558
  0.7999999999999972  0.7999999999999972  0.4069841147579821
  0.8999999999999987  0.8999999999999987  0.4069841147579821
  0.7999999999999972  0.8999999999999987  0.5025749708513558
  0.8999999999999987  0.7999999999999972  0.5025749708513558
  0.0000000000000000  0.0000000000000000  0.5025749708513558
  0.1000000000000014  0.1000000000000014  0.5025749708513558
  0.0000000000000000  0.1000000000000014  0.4069841147579821
  0.1000000000000014  0.0000000000000000  0.4069841147579821
  0.0000000000000000  0.2000000000000028  0.5025749708513558
  0.1000000000000014  0.2999999999999972  0.5025749708513558
  0.0000000000000000  0.2999999999999972  0.4069841147579821
  0.1000000000000014  0.2000000000000028  0.4069841147579821
  0.0000000000000000  0.3999999999999986  0.5025749708513558
  0.1000000000000014  0.5000000000000000  0.5025749708513558
  0.0000000000000000  0.5000000000000000  0.4069841147579821
  0.1000000000000014  0.3999999999999986  0.4069841147579821
  0.0000000000000000  0.6000000000000014  0.5025749708513558
  0.1000000000000014  0.7000000000000028  0.5025749708513558
  0.0000000000000000  0.7000000000000028  0.4069841147579821
  0.1000000000000014  0.6000000000000014  0.4069841147579821
  0.0000000000000000  0.7999999999999972  0.5025749708513558
  0.1000000000000014  0.8999999999999987  0.5025749708513558
  0.0000000000000000  0.8999999999999987  0.4069841147579821
  0.1000000000000014  0.7999999999999972  0.4069841147579821
  0.2000000000000028  0.0000000000000000  0.5025749708513558
  0.2999999999999972  0.1000000000000014  0.5025749708513558
  0.2000000000000028  0.1000000000000014  0.4069841147579821
  0.2999999999999972  0.0000000000000000  0.4069841147579821
  0.2000000000000028  0.2000000000000028  0.5025749708513558
  0.2999999999999972  0.2999999999999972  0.5025749708513558
  0.2000000000000028  0.2999999999999972  0.4069841147579821
  0.2999999999999972  0.2000000000000028  0.4069841147579821
  0.2000000000000028  0.3999999999999986  0.5025749708513558
  0.2999999999999972  0.5000000000000000  0.5025749708513558
  0.2000000000000028  0.5000000000000000  0.4069841147579821
  0.2999999999999972  0.3999999999999986  0.4069841147579821
  0.2000000000000028  0.6000000000000014  0.5025749708513558
  0.2999999999999972  0.7000000000000028  0.5025749708513558
  0.2000000000000028  0.7000000000000028  0.4069841147579821
  0.2999999999999972  0.6000000000000014  0.4069841147579821
  0.2000000000000028  0.7999999999999972  0.5025749708513558
  0.2999999999999972  0.8999999999999987  0.5025749708513558
  0.2000000000000028  0.8999999999999987  0.4069841147579821
  0.2999999999999972  0.7999999999999972  0.4069841147579821
  0.3999999999999986  0.0000000000000000  0.5025749708513558
  0.5000000000000000  0.1000000000000014  0.5025749708513558
  0.3999999999999986  0.1000000000000014  0.4069841147579821
  0.5000000000000000  0.0000000000000000  0.4069841147579821
  0.3999999999999986  0.2000000000000028  0.5025749708513558
  0.5000000000000000  0.2999999999999972  0.5025749708513558
  0.3999999999999986  0.2999999999999972  0.4069841147579821
  0.5000000000000000  0.2000000000000028  0.4069841147579821
  0.3999999999999986  0.3999999999999986  0.5025749708513558
  0.5000000000000000  0.5000000000000000  0.5025749708513558
  0.3999999999999986  0.5000000000000000  0.4069841147579821
  0.5000000000000000  0.3999999999999986  0.4069841147579821
  0.3999999999999986  0.6000000000000014  0.5025749708513558
  0.5000000000000000  0.7000000000000028  0.5025749708513558
  0.3999999999999986  0.7000000000000028  0.4069841147579821
  0.5000000000000000  0.6000000000000014  0.4069841147579821
  0.3999999999999986  0.7999999999999972  0.5025749708513558
  0.5000000000000000  0.8999999999999987  0.5025749708513558
  0.3999999999999986  0.8999999999999987  0.4069841147579821
  0.5000000000000000  0.7999999999999972  0.4069841147579821
  0.6000000000000014  0.0000000000000000  0.5025749708513558
  0.7000000000000028  0.1000000000000014  0.5025749708513558
  0.6000000000000014  0.1000000000000014  0.4069841147579821
  0.7000000000000028  0.0000000000000000  0.4069841147579821
  0.6000000000000014  0.2000000000000028  0.5025749708513558
  0.7000000000000028  0.2999999999999972  0.5025749708513558
  0.6000000000000014  0.2999999999999972  0.4069841147579821
  0.7000000000000028  0.2000000000000028  0.4069841147579821
  0.6000000000000014  0.3999999999999986  0.5025749708513558
  0.7000000000000028  0.5000000000000000  0.5025749708513558
  0.6000000000000014  0.5000000000000000  0.4069841147579821
  0.7000000000000028  0.3999999999999986  0.4069841147579821
  0.6000000000000014  0.6000000000000014  0.5025749708513558
  0.7000000000000028  0.7000000000000028  0.5025749708513558
  0.6000000000000014  0.7000000000000028  0.4069841147579821
  0.7000000000000028  0.6000000000000014  0.4069841147579821
  0.6000000000000014  0.7999999999999972  0.5025749708513558
  0.7000000000000028  0.8999999999999987  0.5025749708513558
  0.6000000000000014  0.8999999999999987  0.4069841147579821
  0.7000000000000028  0.7999999999999972  0.4069841147579821
  0.7999999999999972  0.0000000000000000  0.5025749708513558
  0.8999999999999987  0.1000000000000014  0.5025749708513558
  0.7999999999999972  0.1000000000000014  0.4069841147579821
  0.8999999999999987  0.0000000000000000  0.4069841147579821
  0.7999999999999972  0.2000000000000028  0.5025749708513558
  0.8999999999999987  0.2999999999999972  0.5025749708513558
  0.7999999999999972  0.2999999999999972  0.4069841147579821
  0.8999999999999987  0.2000000000000028  0.4069841147579821
  0.7999999999999972  0.3999999999999986  0.5025749708513558
  0.8999999999999987  0.5000000000000000  0.5025749708513558
  0.7999999999999972  0.5000000000000000  0.4069841147579821
  0.8999999999999987  0.3999999999999986  0.4069841147579821
  0.7999999999999972  0.6000000000000014  0.5025749708513558
  0.8999999999999987  0.7000000000000028  0.5025749708513558
  0.7999999999999972  0.7000000000000028  0.4069841147579821
  0.8999999999999987  0.6000000000000014  0.4069841147579821
  0.7999999999999972  0.7999999999999972  0.5025749708513558
  0.8999999999999987  0.8999999999999987  0.5025749708513558
  0.7999999999999972  0.8999999999999987  0.4069841147579821
  0.8999999999999987  0.7999999999999972  0.4069841147579821
