SYSTEM=MgO-rocksalt
ISMEAR=0
SIGMA=0.05
EDIFF=1E-6
ALGO=ALL
ISTART=0
IBRION=-1
NSW=0
ISYM=2
DIPOL=0.5 0.5 0.5
IDIPOL = 3
LDIPOL = .TRUE.

LHFCALC = .TRUE.
GGA = PE

IVDW=11
VDW_S6=1.0
VDW_SR=1.287
VDW_S8=0.928

ENCUT=520
PREC=Accurate  #default (Normal) usually safe, structures/energies change little with Accurate
LASPH=.TRUE.
LREAL=Auto
ISPIN=1
NELM=200
NELMIN=8
NCORE=2
KPAR=1
LWAVE=.FALSE.
LCHARG=.FALSE.
