Cu Mg  O                                
   1.00000000000000     
    21.1388521970183838    0.0000000000000000    0.0000000000000000
     0.0000000000000000   21.1388521970183838    0.0000000000000000
     0.0000000000000000    0.0000000000000000   22.1138852197018352
   Cu   Mg   O 
     2   100   100
Direct
  0.4499999882816468  0.4500000178365511  0.6986914325031179
  0.4499999882816468  0.4500000178365511  0.5979770103626478
  0.0000000000000000  0.0000000000000000  0.4069841147579822
  0.1000000000000014  0.1000000000000014  0.4069841147579822
  0.0000000000000000  0.1000000000000014  0.5025749708513558
  0.1000000000000014  0.0000000000000000  0.5025749708513558
  0.0000000000000000  0.2000000000000028  0.4069841147579822
  0.1000000000000014  0.2999999999999972  0.4069841147579822
  0.0000000000000000  0.2999999999999972  0.5025749708513558
  0.1000000000000014  0.2000000000000028  0.5025749708513558
  0.0000000000000000  0.3999999999999986  0.4069841147579822
  0.1000000000000014  0.5000000000000000  0.4069841147579822
  0.0000000000000000  0.5000000000000000  0.5025749708513558
  0.1000000000000014  0.3999999999999986  0.5025749708513558
  0.0000000000000000  0.6000000000000014  0.4069841147579822
  0.1000000000000014  0.7000000000000028  0.4069841147579822
  0.0000000000000000  0.7000000000000028  0.5025749708513558
  0.1000000000000014  0.6000000000000014  0.5025749708513558
  0.0000000000000000  0.7999999999999972  0.4069841147579822
  0.1000000000000014  0.8999999999999986  0.4069841147579822
  0.0000000000000000  0.8999999999999986  0.5025749708513558
  0.1000000000000014  0.7999999999999972  0.5025749708513558
  0.2000000000000028  0.0000000000000000  0.4069841147579822
  0.2999999999999972  0.1000000000000014  0.4069841147579822
  0.2000000000000028  0.1000000000000014  0.5025749708513558
  0.2999999999999972  0.0000000000000000  0.5025749708513558
  0.2000000000000028  0.2000000000000028  0.4069841147579822
  0.2999999999999972  0.2999999999999972  0.4069841147579822
  0.2000000000000028  0.2999999999999972  0.5025749708513558
  0.2999999999999972  0.2000000000000028  0.5025749708513558
  0.2000000000000028  0.3999999999999986  0.4069841147579822
  0.2999999999999972  0.5000000000000000  0.4069841147579822
  0.2000000000000028  0.5000000000000000  0.5025749708513558
  0.2999999999999972  0.3999999999999986  0.5025749708513558
  0.2000000000000028  0.6000000000000014  0.4069841147579822
  0.2999999999999972  0.7000000000000028  0.4069841147579822
  0.2000000000000028  0.7000000000000028  0.5025749708513558
  0.2999999999999972  0.6000000000000014  0.5025749708513558
  0.2000000000000028  0.7999999999999972  0.4069841147579822
  0.2999999999999972  0.8999999999999986  0.4069841147579822
  0.2000000000000028  0.8999999999999986  0.5025749708513558
  0.2999999999999972  0.7999999999999972  0.5025749708513558
  0.3999999999999986  0.0000000000000000  0.4069841147579822
  0.5000000000000000  0.1000000000000014  0.4069841147579822
  0.3999999999999986  0.1000000000000014  0.5025749708513558
  0.5000000000000000  0.0000000000000000  0.5025749708513558
  0.3999999999999986  0.2000000000000028  0.4069841147579822
  0.5000000000000000  0.2999999999999972  0.4069841147579822
  0.3999999999999986  0.2999999999999972  0.5025749708513558
  0.5000000000000000  0.2000000000000028  0.5025749708513558
  0.3999999999999986  0.3999999999999986  0.4069841147579822
  0.5000000000000000  0.5000000000000000  0.4069841147579822
  0.3999999999999986  0.5000000000000000  0.5025749708513558
  0.5000000000000000  0.3999999999999986  0.5025749708513558
  0.3999999999999986  0.6000000000000014  0.4069841147579822
  0.5000000000000000  0.7000000000000028  0.4069841147579822
  0.3999999999999986  0.7000000000000028  0.5025749708513558
  0.5000000000000000  0.6000000000000014  0.5025749708513558
  0.3999999999999986  0.7999999999999972  0.4069841147579822
  0.5000000000000000  0.8999999999999986  0.4069841147579822
  0.3999999999999986  0.8999999999999986  0.5025749708513558
  0.5000000000000000  0.7999999999999972  0.5025749708513558
  0.6000000000000014  0.0000000000000000  0.4069841147579822
  0.7000000000000028  0.1000000000000014  0.4069841147579822
  0.6000000000000014  0.1000000000000014  0.5025749708513558
  0.7000000000000028  0.0000000000000000  0.5025749708513558
  0.6000000000000014  0.2000000000000028  0.4069841147579822
  0.7000000000000028  0.2999999999999972  0.4069841147579822
  0.6000000000000014  0.2999999999999972  0.5025749708513558
  0.7000000000000028  0.2000000000000028  0.5025749708513558
  0.6000000000000014  0.3999999999999986  0.4069841147579822
  0.7000000000000028  0.5000000000000000  0.4069841147579822
  0.6000000000000014  0.5000000000000000  0.5025749708513558
  0.7000000000000028  0.3999999999999986  0.5025749708513558
  0.6000000000000014  0.6000000000000014  0.4069841147579822
  0.7000000000000028  0.7000000000000028  0.4069841147579822
  0.6000000000000014  0.7000000000000028  0.5025749708513558
  0.7000000000000028  0.6000000000000014  0.5025749708513558
  0.6000000000000014  0.7999999999999972  0.4069841147579822
  0.7000000000000028  0.8999999999999986  0.4069841147579822
  0.6000000000000014  0.8999999999999986  0.5025749708513558
  0.7000000000000028  0.7999999999999972  0.5025749708513558
  0.7999999999999972  0.0000000000000000  0.4069841147579822
  0.8999999999999986  0.1000000000000014  0.4069841147579822
  0.7999999999999972  0.1000000000000014  0.5025749708513558
  0.8999999999999986  0.0000000000000000  0.5025749708513558
  0.7999999999999972  0.2000000000000028  0.4069841147579822
  0.8999999999999986  0.2999999999999972  0.4069841147579822
  0.7999999999999972  0.2999999999999972  0.5025749708513558
  0.8999999999999986  0.2000000000000028  0.5025749708513558
  0.7999999999999972  0.3999999999999986  0.4069841147579822
  0.8999999999999986  0.5000000000000000  0.4069841147579822
  0.7999999999999972  0.5000000000000000  0.5025749708513558
  0.8999999999999986  0.3999999999999986  0.5025749708513558
  0.7999999999999972  0.6000000000000014  0.4069841147579822
  0.8999999999999986  0.7000000000000028  0.4069841147579822
  0.7999999999999972  0.7000000000000028  0.5025749708513558
  0.8999999999999986  0.6000000000000014  0.5025749708513558
  0.7999999999999972  0.7999999999999972  0.4069841147579822
  0.8999999999999986  0.8999999999999986  0.4069841147579822
  0.7999999999999972  0.8999999999999986  0.5025749708513558
  0.8999999999999986  0.7999999999999972  0.5025749708513558
  0.0000000000000000  0.0000000000000000  0.5025749708513558
  0.1000000000000014  0.1000000000000014  0.5025749708513558
  0.0000000000000000  0.1000000000000014  0.4069841147579822
  0.1000000000000014  0.0000000000000000  0.4069841147579822
  0.0000000000000000  0.2000000000000028  0.5025749708513558
  0.1000000000000014  0.2999999999999972  0.5025749708513558
  0.0000000000000000  0.2999999999999972  0.4069841147579822
  0.1000000000000014  0.2000000000000028  0.4069841147579822
  0.0000000000000000  0.3999999999999986  0.5025749708513558
  0.1000000000000014  0.5000000000000000  0.5025749708513558
  0.0000000000000000  0.5000000000000000  0.4069841147579822
  0.1000000000000014  0.3999999999999986  0.4069841147579822
  0.0000000000000000  0.6000000000000014  0.5025749708513558
  0.1000000000000014  0.7000000000000028  0.5025749708513558
  0.0000000000000000  0.7000000000000028  0.4069841147579822
  0.1000000000000014  0.6000000000000014  0.4069841147579822
  0.0000000000000000  0.7999999999999972  0.5025749708513558
  0.1000000000000014  0.8999999999999986  0.5025749708513558
  0.0000000000000000  0.8999999999999986  0.4069841147579822
  0.1000000000000014  0.7999999999999972  0.4069841147579822
  0.2000000000000028  0.0000000000000000  0.5025749708513558
  0.2999999999999972  0.1000000000000014  0.5025749708513558
  0.2000000000000028  0.1000000000000014  0.4069841147579822
  0.2999999999999972  0.0000000000000000  0.4069841147579822
  0.2000000000000028  0.2000000000000028  0.5025749708513558
  0.2999999999999972  0.2999999999999972  0.5025749708513558
  0.2000000000000028  0.2999999999999972  0.4069841147579822
  0.2999999999999972  0.2000000000000028  0.4069841147579822
  0.2000000000000028  0.3999999999999986  0.5025749708513558
  0.2999999999999972  0.5000000000000000  0.5025749708513558
  0.2000000000000028  0.5000000000000000  0.4069841147579822
  0.2999999999999972  0.3999999999999986  0.4069841147579822
  0.2000000000000028  0.6000000000000014  0.5025749708513558
  0.2999999999999972  0.7000000000000028  0.5025749708513558
  0.2000000000000028  0.7000000000000028  0.4069841147579822
  0.2999999999999972  0.6000000000000014  0.4069841147579822
  0.2000000000000028  0.7999999999999972  0.5025749708513558
  0.2999999999999972  0.8999999999999986  0.5025749708513558
  0.2000000000000028  0.8999999999999986  0.4069841147579822
  0.2999999999999972  0.7999999999999972  0.4069841147579822
  0.3999999999999986  0.0000000000000000  0.5025749708513558
  0.5000000000000000  0.1000000000000014  0.5025749708513558
  0.3999999999999986  0.1000000000000014  0.4069841147579822
  0.5000000000000000  0.0000000000000000  0.4069841147579822
  0.3999999999999986  0.2000000000000028  0.5025749708513558
  0.5000000000000000  0.2999999999999972  0.5025749708513558
  0.3999999999999986  0.2999999999999972  0.4069841147579822
  0.5000000000000000  0.2000000000000028  0.4069841147579822
  0.3999999999999986  0.3999999999999986  0.5025749708513558
  0.5000000000000000  0.5000000000000000  0.5025749708513558
  0.3999999999999986  0.5000000000000000  0.4069841147579822
  0.5000000000000000  0.3999999999999986  0.4069841147579822
  0.3999999999999986  0.6000000000000014  0.5025749708513558
  0.5000000000000000  0.7000000000000028  0.5025749708513558
  0.3999999999999986  0.7000000000000028  0.4069841147579822
  0.5000000000000000  0.6000000000000014  0.4069841147579822
  0.3999999999999986  0.7999999999999972  0.5025749708513558
  0.5000000000000000  0.8999999999999986  0.5025749708513558
  0.3999999999999986  0.8999999999999986  0.4069841147579822
  0.5000000000000000  0.7999999999999972  0.4069841147579822
  0.6000000000000014  0.0000000000000000  0.5025749708513558
  0.7000000000000028  0.1000000000000014  0.5025749708513558
  0.6000000000000014  0.1000000000000014  0.4069841147579822
  0.7000000000000028  0.0000000000000000  0.4069841147579822
  0.6000000000000014  0.2000000000000028  0.5025749708513558
  0.7000000000000028  0.2999999999999972  0.5025749708513558
  0.6000000000000014  0.2999999999999972  0.4069841147579822
  0.7000000000000028  0.2000000000000028  0.4069841147579822
  0.6000000000000014  0.3999999999999986  0.5025749708513558
  0.7000000000000028  0.5000000000000000  0.5025749708513558
  0.6000000000000014  0.5000000000000000  0.4069841147579822
  0.7000000000000028  0.3999999999999986  0.4069841147579822
  0.6000000000000014  0.6000000000000014  0.5025749708513558
  0.7000000000000028  0.7000000000000028  0.5025749708513558
  0.6000000000000014  0.7000000000000028  0.4069841147579822
  0.7000000000000028  0.6000000000000014  0.4069841147579822
  0.6000000000000014  0.7999999999999972  0.5025749708513558
  0.7000000000000028  0.8999999999999986  0.5025749708513558
  0.6000000000000014  0.8999999999999986  0.4069841147579822
  0.7000000000000028  0.7999999999999972  0.4069841147579822
  0.7999999999999972  0.0000000000000000  0.5025749708513558
  0.8999999999999986  0.1000000000000014  0.5025749708513558
  0.7999999999999972  0.1000000000000014  0.4069841147579822
  0.8999999999999986  0.0000000000000000  0.4069841147579822
  0.7999999999999972  0.2000000000000028  0.5025749708513558
  0.8999999999999986  0.2999999999999972  0.5025749708513558
  0.7999999999999972  0.2999999999999972  0.4069841147579822
  0.8999999999999986  0.2000000000000028  0.4069841147579822
  0.7999999999999972  0.3999999999999986  0.5025749708513558
  0.8999999999999986  0.5000000000000000  0.5025749708513558
  0.7999999999999972  0.5000000000000000  0.4069841147579822
  0.8999999999999986  0.3999999999999986  0.4069841147579822
  0.7999999999999972  0.6000000000000014  0.5025749708513558
  0.8999999999999986  0.7000000000000028  0.5025749708513558
  0.7999999999999972  0.7000000000000028  0.4069841147579822
  0.8999999999999986  0.6000000000000014  0.4069841147579822
  0.7999999999999972  0.7999999999999972  0.5025749708513558
  0.8999999999999986  0.8999999999999986  0.5025749708513558
  0.7999999999999972  0.8999999999999986  0.4069841147579822
  0.8999999999999986  0.7999999999999972  0.4069841147579822
 
  0.00000000E+00  0.00000000E+00  0.00000000E+00
  0.00000000E+00  0.00000000E+00  0.00000000E+00
  0.00000000E+00  0.00000000E+00  0.00000000E+00
  0.00000000E+00  0.00000000E+00  0.00000000E+00
  0.00000000E+00  0.00000000E+00  0.00000000E+00
  0.00000000E+00  0.00000000E+00  0.00000000E+00
  0.00000000E+00  0.00000000E+00  0.00000000E+00
  0.00000000E+00  0.00000000E+00  0.00000000E+00
  0.00000000E+00  0.00000000E+00  0.00000000E+00
  0.00000000E+00  0.00000000E+00  0.00000000E+00
  0.00000000E+00  0.00000000E+00  0.00000000E+00
  0.00000000E+00  0.00000000E+00  0.00000000E+00
  0.00000000E+00  0.00000000E+00  0.00000000E+00
  0.00000000E+00  0.00000000E+00  0.00000000E+00
  0.00000000E+00  0.00000000E+00  0.00000000E+00
  0.00000000E+00  0.00000000E+00  0.00000000E+00
  0.00000000E+00  0.00000000E+00  0.00000000E+00
  0.00000000E+00  0.00000000E+00  0.00000000E+00
  0.00000000E+00  0.00000000E+00  0.00000000E+00
  0.00000000E+00  0.00000000E+00  0.00000000E+00
  0.00000000E+00  0.00000000E+00  0.00000000E+00
  0.00000000E+00  0.00000000E+00  0.00000000E+00
  0.00000000E+00  0.00000000E+00  0.00000000E+00
  0.00000000E+00  0.00000000E+00  0.00000000E+00
  0.00000000E+00  0.00000000E+00  0.00000000E+00
  0.00000000E+00  0.00000000E+00  0.00000000E+00
  0.00000000E+00  0.00000000E+00  0.00000000E+00
  0.00000000E+00  0.00000000E+00  0.00000000E+00
  0.00000000E+00  0.00000000E+00  0.00000000E+00
  0.00000000E+00  0.00000000E+00  0.00000000E+00
  0.00000000E+00  0.00000000E+00  0.00000000E+00
  0.00000000E+00  0.00000000E+00  0.00000000E+00
  0.00000000E+00  0.00000000E+00  0.00000000E+00
  0.00000000E+00  0.00000000E+00  0.00000000E+00
  0.00000000E+00  0.00000000E+00  0.00000000E+00
  0.00000000E+00  0.00000000E+00  0.00000000E+00
  0.00000000E+00  0.00000000E+00  0.00000000E+00
  0.00000000E+00  0.00000000E+00  0.00000000E+00
  0.00000000E+00  0.00000000E+00  0.00000000E+00
  0.00000000E+00  0.00000000E+00  0.00000000E+00
  0.00000000E+00  0.00000000E+00  0.00000000E+00
  0.00000000E+00  0.00000000E+00  0.00000000E+00
  0.00000000E+00  0.00000000E+00  0.00000000E+00
  0.00000000E+00  0.00000000E+00  0.00000000E+00
  0.00000000E+00  0.00000000E+00  0.00000000E+00
  0.00000000E+00  0.00000000E+00  0.00000000E+00
  0.00000000E+00  0.00000000E+00  0.00000000E+00
  0.00000000E+00  0.00000000E+00  0.00000000E+00
  0.00000000E+00  0.00000000E+00  0.00000000E+00
  0.00000000E+00  0.00000000E+00  0.00000000E+00
  0.00000000E+00  0.00000000E+00  0.00000000E+00
  0.00000000E+00  0.00000000E+00  0.00000000E+00
  0.00000000E+00  0.00000000E+00  0.00000000E+00
  0.00000000E+00  0.00000000E+00  0.00000000E+00
  0.00000000E+00  0.00000000E+00  0.00000000E+00
  0.00000000E+00  0.00000000E+00  0.00000000E+00
  0.00000000E+00  0.00000000E+00  0.00000000E+00
  0.00000000E+00  0.00000000E+00  0.00000000E+00
  0.00000000E+00  0.00000000E+00  0.00000000E+00
  0.00000000E+00  0.00000000E+00  0.00000000E+00
  0.00000000E+00  0.00000000E+00  0.00000000E+00
  0.00000000E+00  0.00000000E+00  0.00000000E+00
  0.00000000E+00  0.00000000E+00  0.00000000E+00
  0.00000000E+00  0.00000000E+00  0.00000000E+00
  0.00000000E+00  0.00000000E+00  0.00000000E+00
  0.00000000E+00  0.00000000E+00  0.00000000E+00
  0.00000000E+00  0.00000000E+00  0.00000000E+00
  0.00000000E+00  0.00000000E+00  0.00000000E+00
  0.00000000E+00  0.00000000E+00  0.00000000E+00
  0.00000000E+00  0.00000000E+00  0.00000000E+00
  0.00000000E+00  0.00000000E+00  0.00000000E+00
  0.00000000E+00  0.00000000E+00  0.00000000E+00
  0.00000000E+00  0.00000000E+00  0.00000000E+00
  0.00000000E+00  0.00000000E+00  0.00000000E+00
  0.00000000E+00  0.00000000E+00  0.00000000E+00
  0.00000000E+00  0.00000000E+00  0.00000000E+00
  0.00000000E+00  0.00000000E+00  0.00000000E+00
  0.00000000E+00  0.00000000E+00  0.00000000E+00
  0.00000000E+00  0.00000000E+00  0.00000000E+00
  0.00000000E+00  0.00000000E+00  0.00000000E+00
  0.00000000E+00  0.00000000E+00  0.00000000E+00
  0.00000000E+00  0.00000000E+00  0.00000000E+00
  0.00000000E+00  0.00000000E+00  0.00000000E+00
  0.00000000E+00  0.00000000E+00  0.00000000E+00
  0.00000000E+00  0.00000000E+00  0.00000000E+00
  0.00000000E+00  0.00000000E+00  0.00000000E+00
  0.00000000E+00  0.00000000E+00  0.00000000E+00
  0.00000000E+00  0.00000000E+00  0.00000000E+00
  0.00000000E+00  0.00000000E+00  0.00000000E+00
  0.00000000E+00  0.00000000E+00  0.00000000E+00
  0.00000000E+00  0.00000000E+00  0.00000000E+00
  0.00000000E+00  0.00000000E+00  0.00000000E+00
  0.00000000E+00  0.00000000E+00  0.00000000E+00
  0.00000000E+00  0.00000000E+00  0.00000000E+00
  0.00000000E+00  0.00000000E+00  0.00000000E+00
  0.00000000E+00  0.00000000E+00  0.00000000E+00
  0.00000000E+00  0.00000000E+00  0.00000000E+00
  0.00000000E+00  0.00000000E+00  0.00000000E+00
  0.00000000E+00  0.00000000E+00  0.00000000E+00
  0.00000000E+00  0.00000000E+00  0.00000000E+00
  0.00000000E+00  0.00000000E+00  0.00000000E+00
  0.00000000E+00  0.00000000E+00  0.00000000E+00
  0.00000000E+00  0.00000000E+00  0.00000000E+00
  0.00000000E+00  0.00000000E+00  0.00000000E+00
  0.00000000E+00  0.00000000E+00  0.00000000E+00
  0.00000000E+00  0.00000000E+00  0.00000000E+00
  0.00000000E+00  0.00000000E+00  0.00000000E+00
  0.00000000E+00  0.00000000E+00  0.00000000E+00
  0.00000000E+00  0.00000000E+00  0.00000000E+00
  0.00000000E+00  0.00000000E+00  0.00000000E+00
  0.00000000E+00  0.00000000E+00  0.00000000E+00
  0.00000000E+00  0.00000000E+00  0.00000000E+00
  0.00000000E+00  0.00000000E+00  0.00000000E+00
  0.00000000E+00  0.00000000E+00  0.00000000E+00
  0.00000000E+00  0.00000000E+00  0.00000000E+00
  0.00000000E+00  0.00000000E+00  0.00000000E+00
  0.00000000E+00  0.00000000E+00  0.00000000E+00
  0.00000000E+00  0.00000000E+00  0.00000000E+00
  0.00000000E+00  0.00000000E+00  0.00000000E+00
  0.00000000E+00  0.00000000E+00  0.00000000E+00
  0.00000000E+00  0.00000000E+00  0.00000000E+00
  0.00000000E+00  0.00000000E+00  0.00000000E+00
  0.00000000E+00  0.00000000E+00  0.00000000E+00
  0.00000000E+00  0.00000000E+00  0.00000000E+00
  0.00000000E+00  0.00000000E+00  0.00000000E+00
  0.00000000E+00  0.00000000E+00  0.00000000E+00
  0.00000000E+00  0.00000000E+00  0.00000000E+00
  0.00000000E+00  0.00000000E+00  0.00000000E+00
  0.00000000E+00  0.00000000E+00  0.00000000E+00
  0.00000000E+00  0.00000000E+00  0.00000000E+00
  0.00000000E+00  0.00000000E+00  0.00000000E+00
  0.00000000E+00  0.00000000E+00  0.00000000E+00
  0.00000000E+00  0.00000000E+00  0.00000000E+00
  0.00000000E+00  0.00000000E+00  0.00000000E+00
  0.00000000E+00  0.00000000E+00  0.00000000E+00
  0.00000000E+00  0.00000000E+00  0.00000000E+00
  0.00000000E+00  0.00000000E+00  0.00000000E+00
  0.00000000E+00  0.00000000E+00  0.00000000E+00
  0.00000000E+00  0.00000000E+00  0.00000000E+00
  0.00000000E+00  0.00000000E+00  0.00000000E+00
  0.00000000E+00  0.00000000E+00  0.00000000E+00
  0.00000000E+00  0.00000000E+00  0.00000000E+00
  0.00000000E+00  0.00000000E+00  0.00000000E+00
  0.00000000E+00  0.00000000E+00  0.00000000E+00
  0.00000000E+00  0.00000000E+00  0.00000000E+00
  0.00000000E+00  0.00000000E+00  0.00000000E+00
  0.00000000E+00  0.00000000E+00  0.00000000E+00
  0.00000000E+00  0.00000000E+00  0.00000000E+00
  0.00000000E+00  0.00000000E+00  0.00000000E+00
  0.00000000E+00  0.00000000E+00  0.00000000E+00
  0.00000000E+00  0.00000000E+00  0.00000000E+00
  0.00000000E+00  0.00000000E+00  0.00000000E+00
  0.00000000E+00  0.00000000E+00  0.00000000E+00
  0.00000000E+00  0.00000000E+00  0.00000000E+00
  0.00000000E+00  0.00000000E+00  0.00000000E+00
  0.00000000E+00  0.00000000E+00  0.00000000E+00
  0.00000000E+00  0.00000000E+00  0.00000000E+00
  0.00000000E+00  0.00000000E+00  0.00000000E+00
  0.00000000E+00  0.00000000E+00  0.00000000E+00
  0.00000000E+00  0.00000000E+00  0.00000000E+00
  0.00000000E+00  0.00000000E+00  0.00000000E+00
  0.00000000E+00  0.00000000E+00  0.00000000E+00
  0.00000000E+00  0.00000000E+00  0.00000000E+00
  0.00000000E+00  0.00000000E+00  0.00000000E+00
  0.00000000E+00  0.00000000E+00  0.00000000E+00
  0.00000000E+00  0.00000000E+00  0.00000000E+00
  0.00000000E+00  0.00000000E+00  0.00000000E+00
  0.00000000E+00  0.00000000E+00  0.00000000E+00
  0.00000000E+00  0.00000000E+00  0.00000000E+00
  0.00000000E+00  0.00000000E+00  0.00000000E+00
  0.00000000E+00  0.00000000E+00  0.00000000E+00
  0.00000000E+00  0.00000000E+00  0.00000000E+00
  0.00000000E+00  0.00000000E+00  0.00000000E+00
  0.00000000E+00  0.00000000E+00  0.00000000E+00
  0.00000000E+00  0.00000000E+00  0.00000000E+00
  0.00000000E+00  0.00000000E+00  0.00000000E+00
  0.00000000E+00  0.00000000E+00  0.00000000E+00
  0.00000000E+00  0.00000000E+00  0.00000000E+00
  0.00000000E+00  0.00000000E+00  0.00000000E+00
  0.00000000E+00  0.00000000E+00  0.00000000E+00
  0.00000000E+00  0.00000000E+00  0.00000000E+00
  0.00000000E+00  0.00000000E+00  0.00000000E+00
  0.00000000E+00  0.00000000E+00  0.00000000E+00
  0.00000000E+00  0.00000000E+00  0.00000000E+00
  0.00000000E+00  0.00000000E+00  0.00000000E+00
  0.00000000E+00  0.00000000E+00  0.00000000E+00
  0.00000000E+00  0.00000000E+00  0.00000000E+00
  0.00000000E+00  0.00000000E+00  0.00000000E+00
  0.00000000E+00  0.00000000E+00  0.00000000E+00
  0.00000000E+00  0.00000000E+00  0.00000000E+00
  0.00000000E+00  0.00000000E+00  0.00000000E+00
  0.00000000E+00  0.00000000E+00  0.00000000E+00
  0.00000000E+00  0.00000000E+00  0.00000000E+00
  0.00000000E+00  0.00000000E+00  0.00000000E+00
  0.00000000E+00  0.00000000E+00  0.00000000E+00
  0.00000000E+00  0.00000000E+00  0.00000000E+00
  0.00000000E+00  0.00000000E+00  0.00000000E+00
  0.00000000E+00  0.00000000E+00  0.00000000E+00
  0.00000000E+00  0.00000000E+00  0.00000000E+00
  0.00000000E+00  0.00000000E+00  0.00000000E+00
  0.00000000E+00  0.00000000E+00  0.00000000E+00
  0.00000000E+00  0.00000000E+00  0.00000000E+00
