Ag                                      
   1.00000000000000     
    20.0000000000000000    0.0000000000000000    0.0000000000000000
     0.0000000000000000   20.0000000000000000    0.0000000000000000
     0.0000000000000000    0.0000000000000000   20.0000000000000000
   Ag
     8
Direct
  0.6532913932116529  0.4227515161646593  0.4559864489897762
  0.4316764854758404  0.5744396118011323  0.5187855248511823
  0.3440690069001135  0.5333668757657364  0.6123381699130803
  0.4535287390003759  0.4596637077727195  0.5859691681473365
  0.5636753213831014  0.3857969726826340  0.5569249680839903
  0.5444177730465256  0.4988591290452362  0.4882067855701706
  0.6317229897057572  0.5359800112197775  0.3897795959246011
  0.5205167347766420  0.6136387408131085  0.4239229816298575
 
  0.00000000E+00  0.00000000E+00  0.00000000E+00
  0.00000000E+00  0.00000000E+00  0.00000000E+00
  0.00000000E+00  0.00000000E+00  0.00000000E+00
  0.00000000E+00  0.00000000E+00  0.00000000E+00
  0.00000000E+00  0.00000000E+00  0.00000000E+00
  0.00000000E+00  0.00000000E+00  0.00000000E+00
  0.00000000E+00  0.00000000E+00  0.00000000E+00
  0.00000000E+00  0.00000000E+00  0.00000000E+00
