SYSTEM=MgO-rocksalt
ISMEAR=0
SIGMA=0.05
EDIFF=1E-6
ALGO=ALL
ISTART=0
IBRION=-1
NSW=0
ISYM=0
DIPOL=0.5 0.5 0.5
IDIPOL = 3
LDIPOL = .TRUE.

METAGGA = TPSS

ENCUT=520
PREC=Accurate  #default (Normal) usually safe, structures/energies change little with Accurate
LASPH=.TRUE.
LREAL=Auto
ISPIN=1
NELM=2000
NELMIN=8
NCORE=16
KPAR=1
LWAVE=.FALSE.
LCHARG=.FALSE.
