Cu 
 1.0000000000000000
    21.1388521970183838    0.0000000000000000    0.0000000000000000
     0.0000000000000000   21.1388521970183838    0.0000000000000000
     0.0000000000000000    0.0000000000000000   22.1138852197018352
  Cu
   2
Direct
  0.4499999882816468  0.4500000178365510  0.6986914325031197
  0.4499999882816468  0.4500000178365510  0.5979770103626504
