Mg  O                                   
   1.00000000000000     
    21.1388521970183838    0.0000000000000000    0.0000000000000000
     0.0000000000000000   21.1388521970183838    0.0000000000000000
     0.0000000000000000    0.0000000000000000   30.0000000000000000
   Au   Mg   O 
    20   200   200
Selective dynamics
Direct
  0.5226709647389853  0.4471437492593182  0.6037140096395603   T   T   T
  0.3903824392820852  0.4617678330523347  0.6112410351780042   T   T   T
  0.2620763240464967  0.4764477207292970  0.6097962749381765   T   T   T
  0.1421545602852561  0.4872446275252642  0.5776399040189801   T   T   T
  0.5938872003791005  0.5508450959144326  0.5979409002875116   T   T   T
  0.4671920833569132  0.5631094008338025  0.6096810120731462   T   T   T
  0.3411246800767103  0.5794063673309182  0.6139646583228284   T   T   T
  0.2231060086266510  0.5887155303800071  0.5773759450225882   T   T   T
  0.5638689134282728  0.3287641502855791  0.6057830508126614   T   T   T
  0.4393435339985032  0.3456281215729859  0.6059535911341882   T   T   T
  0.3142020288356449  0.3573995806225057  0.6061886971273083   T   T   T
  0.1885088537311574  0.3724184016069074  0.5946305708415096   T   T   T
  0.6615715041035344  0.6545047592373834  0.5793568623838112   T   T   T
  0.5400091289192872  0.6691760400722941  0.5979781918257814   T   T   T
  0.4188685543923469  0.6842425858497307  0.6109215783147590   T   T   T
  0.3062487212635077  0.6863472550114906  0.5726951697981661   T   T   T
  0.5892908766914786  0.2176104723149308  0.5698016454991830   T   T   T
  0.4807738708666349  0.2247080201491016  0.6107821569588268   T   T   T
  0.3595447986681961  0.2388565226134389  0.5975942795976650   T   T   T
  0.2341318005608244  0.2562859623643376  0.5891614409095567   T   T   T
  0.0000002564613908  0.0000161728111223  0.4287155795380073   T   T   T
  0.1000151563914073  0.1000109901348196  0.4287452632693558   T   T   T
  0.0000101432327853  0.0999878204916484  0.4976003227927208   T   T   T
  0.0999708692638066  0.0000420009295041  0.4975955678074229   T   T   T
  0.0000225798615716  0.1999875833367497  0.4287344009284482   T   T   T
  0.1001532168570307  0.2999727436052311  0.4288090708167189   T   T   T
  0.9999239545811207  0.2999287694059873  0.4976617262958669   T   T   T
  0.0998726924060804  0.1999544394659480  0.4977576661970105   T   T   T
  0.0000244541213803  0.3999494716622607  0.4287733144890495   T   T   T
  0.0999370590946427  0.4998846081565986  0.4285391230104736   T   T   T
  0.9974025739153376  0.4998479326401366  0.4978069840283226   T   T   T
  0.0997671540527918  0.3989091659725901  0.4986345373108279   T   T   T
  0.9997965572724823  0.6000165470423013  0.4286560583772285   T   T   T
  0.0997987607146555  0.7001059213783307  0.4286124799130562   T   T   T
  0.9996765746127991  0.7002561835130123  0.4975940134689125   T   T   T
  0.0973441183120087  0.6006615009492435  0.4979398792238925   T   T   T
  0.9999479099256021  0.8000557199903326  0.4286931350260303   T   T   T
  0.0999708042895904  0.9000761550356700  0.4286943838881001   T   T   T
  0.9999491660739608  0.9000638615739120  0.4975843461131575   T   T   T
  0.0995521739334251  0.8005024280594384  0.4975751705684104   T   T   T
  0.1999975854509373  0.0000542290625418  0.4287215088860066   T   T   T
  0.2999953943837710  0.1001566815471406  0.4288041365120847   T   T   T
  0.2000145616681408  0.0998424796578732  0.4976940847657687   T   T   T
  0.2999885208842628  0.0000948030064478  0.4976188686868070   T   T   T
  0.2001539849833165  0.2001244275734138  0.4287458172221434   T   T   T
  0.3000760841842620  0.3000021677105380  0.4288487440812503   T   T   T
  0.2002134962378292  0.3000856079826590  0.4994027154350675   T   T   T
  0.3001789132709192  0.2000806945507705  0.4992560759412328   T   T   T
  0.2001522779337890  0.3996592946658666  0.4286878252251967   T   T   T
  0.3004945108214940  0.4995647941127359  0.4285847114197878   T   T   T
  0.2028451867926364  0.4990863644558914  0.4975671961143320   T   T   T
  0.3005596396373775  0.3996111847053427  0.4990683997664931   T   T   T
  0.1999814631512464  0.6001207292470525  0.4284623740311062   T   T   T
  0.3001431262317240  0.7001473459595005  0.4283975414939150   T   T   T
  0.1972059499513463  0.7026697389782797  0.4976051592034167   T   T   T
  0.3030726543500322  0.5972489693236938  0.4977408856455980   T   T   T
  0.1999684589807558  0.8002280483804327  0.4286046927632938   T   T   T
  0.3000156521838733  0.9002080536267485  0.4285816424286040   T   T   T
  0.1997952986251619  0.9002721824844500  0.4975791894486790   T   T   T
  0.3000960548873408  0.8029536644008601  0.4975067303889560   T   T   T
  0.3999932991100152  0.0000456714783326  0.4287151332935792   T   T   T
  0.4999562553525791  0.1000977565169165  0.4287945970817546   T   T   T
  0.3998134349661839  0.0998413303552397  0.4977368699755331   T   T   T
  0.4998577141868950  0.9998842604169482  0.4976287053214392   T   T   T
  0.3997860817090739  0.2001662651651870  0.4287634393751034   T   T   T
  0.4997945820577954  0.3001019017864124  0.4288749139334911   T   T   T
  0.3998685470452301  0.3002416776413099  0.4993451314776109   T   T   T
  0.4965514206848027  0.1999525866491183  0.4992743729640168   T   T   T
  0.4001119496399923  0.3999371825965028  0.4289139646595075   T   T   T
  0.5000345467052512  0.4999647331897492  0.4288997527319793   T   T   T
  0.4006247498572648  0.4995855858592790  0.4991717791426495   T   T   T
  0.4998565497173786  0.4001245966631970  0.4995976920829861   T   T   T
  0.4004430425994414  0.5999515898505408  0.4287926131510673   T   T   T
  0.5001529266696068  0.6998389772465998  0.4287318140874063   T   T   T
  0.4031716402176357  0.7003093260037545  0.4993855331093755   T   T   T
  0.5002050566565117  0.5995842767388169  0.4992366162089752   T   T   T
  0.4000664577813495  0.7999237872838378  0.4287808529518458   T   T   T
  0.5000104648343182  0.8999722605236613  0.4287146356875198   T   T   T
  0.4001709138040894  0.9001390665006923  0.4976239615994018   T   T   T
  0.5001761571411407  0.8002130447062683  0.4977527957191583   T   T   T
  0.6000050898078086  0.9998213962612468  0.4285886025206054   T   T   T
  0.7000658408287848  0.0999425807930621  0.4287159841395010   T   T   T
  0.6001510902309164  0.0969580866903712  0.4975609480628123   T   T   T
  0.7002329190375320  0.9998299289714225  0.4975865408490776   T   T   T
  0.5999722100157641  0.1999793098477411  0.4283302839104621   T   T   T
  0.7000035522446453  0.3000472206344256  0.4287060375384542   T   T   T
  0.5999855737284179  0.3035304632052629  0.4977847217183964   T   T   T
  0.7031035470502118  0.1998505733255911  0.4975076960637068   T   T   T
  0.5997921369269363  0.4003726249129755  0.4287068396997000   T   T   T
  0.6997881864850299  0.4998706257103436  0.4286930763485444   T   T   T
  0.5996616232135068  0.4999048202186813  0.4993314213774696   T   T   T
  0.7001010879332057  0.4001403185211103  0.4976750678548285   T   T   T
  0.5998020623519338  0.5998585209092369  0.4286762803385358   T   T   T
  0.6998642585400887  0.6998565276767579  0.4285903733710796   T   T   T
  0.5992647790173891  0.6998898759628887  0.4990619643204326   T   T   T
  0.6999419049473232  0.5972755219127848  0.4976776543972150   T   T   T
  0.5999928962672385  0.7998812982332382  0.4287979329762024   T   T   T
  0.7000081303630452  0.9000008856741601  0.4287315888761967   T   T   T
  0.6000073848007688  0.8999331331027065  0.4976125045022286   T   T   T
  0.6999885019059064  0.8004883344398266  0.4978931881928190   T   T   T
  0.8000279760541176  0.9999827246272162  0.4287057258151563   T   T   T
  0.9000331348398376  0.0999907119260328  0.4287135236927284   T   T   T
  0.8001904040446775  0.0997689253682879  0.4975846002299136   T   T   T
  0.9000253987292481  0.9999866579784609  0.4975858378057083   T   T   T
  0.8001889400924611  0.1999962179268877  0.4285733275754779   T   T   T
  0.9000187688270103  0.2999876414007474  0.4287134210885810   T   T   T
  0.8001379743810375  0.3001579020855871  0.4975967067905955   T   T   T
  0.9000875237719157  0.1999809364623673  0.4975862375195277   T   T   T
  0.7999545477676406  0.4000015023319889  0.4287125365503783   T   T   T
  0.8998146682090038  0.4999789363550988  0.4286296592824428   T   T   T
  0.8000036708697422  0.4998954823127235  0.4976349574258663   T   T   T
  0.8998666024169708  0.3998403379237843  0.4976054687544291   T   T   T
  0.7999405091604430  0.5999658474464979  0.4287219734335608   T   T   T
  0.8999634399445213  0.7000223482011307  0.4287131487595275   T   T   T
  0.8003456207653272  0.6999197071016354  0.4977973144141856   T   T   T
  0.8997870573688544  0.6001060728208572  0.4975989021022400   T   T   T
  0.7999968030423048  0.8000051868251887  0.4287539200684876   T   T   T
  0.8999967330237126  0.9000135194835721  0.4287127812476896   T   T   T
  0.8000397366825638  0.9000031644816247  0.4975934388095880   T   T   T
  0.8999677249487021  0.8000562912469462  0.4975976617299551   T   T   T
  0.0000000000000000  0.0000000000000000  0.2886110000000031   F   F   F
  0.1000000000000014  0.1000000000000014  0.2886110000000031   F   F   F
  0.0000000000000000  0.1000000000000014  0.3590739999999997   F   F   F
  0.1000000000000014  0.0000000000000000  0.3590739999999997   F   F   F
  0.0000000000000000  0.2000000000000028  0.2886110000000031   F   F   F
  0.1000000000000014  0.2999999999999972  0.2886110000000031   F   F   F
  0.0000000000000000  0.2999999999999972  0.3590739999999997   F   F   F
  0.1000000000000014  0.2000000000000028  0.3590739999999997   F   F   F
  0.0000000000000000  0.3999999999999986  0.2886110000000031   F   F   F
  0.1000000000000014  0.5000000000000000  0.2886110000000031   F   F   F
  0.0000000000000000  0.5000000000000000  0.3590739999999997   F   F   F
  0.1000000000000014  0.3999999999999986  0.3590739999999997   F   F   F
  0.0000000000000000  0.6000000000000014  0.2886110000000031   F   F   F
  0.1000000000000014  0.7000000000000028  0.2886110000000031   F   F   F
  0.0000000000000000  0.7000000000000028  0.3590739999999997   F   F   F
  0.1000000000000014  0.6000000000000014  0.3590739999999997   F   F   F
  0.0000000000000000  0.7999999999999972  0.2886110000000031   F   F   F
  0.1000000000000014  0.8999999999999986  0.2886110000000031   F   F   F
  0.0000000000000000  0.8999999999999986  0.3590739999999997   F   F   F
  0.1000000000000014  0.7999999999999972  0.3590739999999997   F   F   F
  0.2000000000000028  0.0000000000000000  0.2886110000000031   F   F   F
  0.2999999999999972  0.1000000000000014  0.2886110000000031   F   F   F
  0.2000000000000028  0.1000000000000014  0.3590739999999997   F   F   F
  0.2999999999999972  0.0000000000000000  0.3590739999999997   F   F   F
  0.2000000000000028  0.2000000000000028  0.2886110000000031   F   F   F
  0.2999999999999972  0.2999999999999972  0.2886110000000031   F   F   F
  0.2000000000000028  0.2999999999999972  0.3590739999999997   F   F   F
  0.2999999999999972  0.2000000000000028  0.3590739999999997   F   F   F
  0.2000000000000028  0.3999999999999986  0.2886110000000031   F   F   F
  0.2999999999999972  0.5000000000000000  0.2886110000000031   F   F   F
  0.2000000000000028  0.5000000000000000  0.3590739999999997   F   F   F
  0.2999999999999972  0.3999999999999986  0.3590739999999997   F   F   F
  0.2000000000000028  0.6000000000000014  0.2886110000000031   F   F   F
  0.2999999999999972  0.7000000000000028  0.2886110000000031   F   F   F
  0.2000000000000028  0.7000000000000028  0.3590739999999997   F   F   F
  0.2999999999999972  0.6000000000000014  0.3590739999999997   F   F   F
  0.2000000000000028  0.7999999999999972  0.2886110000000031   F   F   F
  0.2999999999999972  0.8999999999999986  0.2886110000000031   F   F   F
  0.2000000000000028  0.8999999999999986  0.3590739999999997   F   F   F
  0.2999999999999972  0.7999999999999972  0.3590739999999997   F   F   F
  0.3999999999999986  0.0000000000000000  0.2886110000000031   F   F   F
  0.5000000000000000  0.1000000000000014  0.2886110000000031   F   F   F
  0.3999999999999986  0.1000000000000014  0.3590739999999997   F   F   F
  0.5000000000000000  0.0000000000000000  0.3590739999999997   F   F   F
  0.3999999999999986  0.2000000000000028  0.2886110000000031   F   F   F
  0.5000000000000000  0.2999999999999972  0.2886110000000031   F   F   F
  0.3999999999999986  0.2999999999999972  0.3590739999999997   F   F   F
  0.5000000000000000  0.2000000000000028  0.3590739999999997   F   F   F
  0.3999999999999986  0.3999999999999986  0.2886110000000031   F   F   F
  0.5000000000000000  0.5000000000000000  0.2886110000000031   F   F   F
  0.3999999999999986  0.5000000000000000  0.3590739999999997   F   F   F
  0.5000000000000000  0.3999999999999986  0.3590739999999997   F   F   F
  0.3999999999999986  0.6000000000000014  0.2886110000000031   F   F   F
  0.5000000000000000  0.7000000000000028  0.2886110000000031   F   F   F
  0.3999999999999986  0.7000000000000028  0.3590739999999997   F   F   F
  0.5000000000000000  0.6000000000000014  0.3590739999999997   F   F   F
  0.3999999999999986  0.7999999999999972  0.2886110000000031   F   F   F
  0.5000000000000000  0.8999999999999986  0.2886110000000031   F   F   F
  0.3999999999999986  0.8999999999999986  0.3590739999999997   F   F   F
  0.5000000000000000  0.7999999999999972  0.3590739999999997   F   F   F
  0.6000000000000014  0.0000000000000000  0.2886110000000031   F   F   F
  0.7000000000000028  0.1000000000000014  0.2886110000000031   F   F   F
  0.6000000000000014  0.1000000000000014  0.3590739999999997   F   F   F
  0.7000000000000028  0.0000000000000000  0.3590739999999997   F   F   F
  0.6000000000000014  0.2000000000000028  0.2886110000000031   F   F   F
  0.7000000000000028  0.2999999999999972  0.2886110000000031   F   F   F
  0.6000000000000014  0.2999999999999972  0.3590739999999997   F   F   F
  0.7000000000000028  0.2000000000000028  0.3590739999999997   F   F   F
  0.6000000000000014  0.3999999999999986  0.2886110000000031   F   F   F
  0.7000000000000028  0.5000000000000000  0.2886110000000031   F   F   F
  0.6000000000000014  0.5000000000000000  0.3590739999999997   F   F   F
  0.7000000000000028  0.3999999999999986  0.3590739999999997   F   F   F
  0.6000000000000014  0.6000000000000014  0.2886110000000031   F   F   F
  0.7000000000000028  0.7000000000000028  0.2886110000000031   F   F   F
  0.6000000000000014  0.7000000000000028  0.3590739999999997   F   F   F
  0.7000000000000028  0.6000000000000014  0.3590739999999997   F   F   F
  0.6000000000000014  0.7999999999999972  0.2886110000000031   F   F   F
  0.7000000000000028  0.8999999999999986  0.2886110000000031   F   F   F
  0.6000000000000014  0.8999999999999986  0.3590739999999997   F   F   F
  0.7000000000000028  0.7999999999999972  0.3590739999999997   F   F   F
  0.7999999999999972  0.0000000000000000  0.2886110000000031   F   F   F
  0.8999999999999986  0.1000000000000014  0.2886110000000031   F   F   F
  0.7999999999999972  0.1000000000000014  0.3590739999999997   F   F   F
  0.8999999999999986  0.0000000000000000  0.3590739999999997   F   F   F
  0.7999999999999972  0.2000000000000028  0.2886110000000031   F   F   F
  0.8999999999999986  0.2999999999999972  0.2886110000000031   F   F   F
  0.7999999999999972  0.2999999999999972  0.3590739999999997   F   F   F
  0.8999999999999986  0.2000000000000028  0.3590739999999997   F   F   F
  0.7999999999999972  0.3999999999999986  0.2886110000000031   F   F   F
  0.8999999999999986  0.5000000000000000  0.2886110000000031   F   F   F
  0.7999999999999972  0.5000000000000000  0.3590739999999997   F   F   F
  0.8999999999999986  0.3999999999999986  0.3590739999999997   F   F   F
  0.7999999999999972  0.6000000000000014  0.2886110000000031   F   F   F
  0.8999999999999986  0.7000000000000028  0.2886110000000031   F   F   F
  0.7999999999999972  0.7000000000000028  0.3590739999999997   F   F   F
  0.8999999999999986  0.6000000000000014  0.3590739999999997   F   F   F
  0.7999999999999972  0.7999999999999972  0.2886110000000031   F   F   F
  0.8999999999999986  0.8999999999999986  0.2886110000000031   F   F   F
  0.7999999999999972  0.8999999999999986  0.3590739999999997   F   F   F
  0.8999999999999986  0.7999999999999972  0.3590739999999997   F   F   F
  0.9999410948588334  0.9998914482963244  0.4989081709647181   T   T   T
  0.0998545549507384  0.0998693182736901  0.4989323113889981   T   T   T
  0.9999765975727897  0.0999824313666196  0.4284684951038003   T   T   T
  0.0999740492184316  0.9998892682105378  0.4284611056322660   T   T   T
  0.9999090942083555  0.1999947843804222  0.4989040423562869   T   T   T
  0.0995342452960983  0.3000760836201835  0.4991477125718831   T   T   T
  0.0000911694346328  0.3001579239961387  0.4285238038306645   T   T   T
  0.1000279455160040  0.2000273775067498  0.4286329531955317   T   T   T
  0.9997525949099497  0.4003301688187051  0.4991000857902108   T   T   T
  0.0980740494750307  0.5009052602704003  0.5012217704280033   T   T   T
  0.0003026022460659  0.5002312271887419  0.4287856860120982   T   T   T
  0.0997931974792365  0.4007631127607993  0.4289216771753246   T   T   T
  0.9994058227815756  0.6000823531489559  0.4990485766046078   T   T   T
  0.0993150735323951  0.7001826356448433  0.4989972880976623   T   T   T
  0.0001560334583175  0.6998252612607558  0.4284923796334112   T   T   T
  0.1000722443631545  0.5996842949400474  0.4290152219223984   T   T   T
  0.9999854781334605  0.7999253911876991  0.4988851987138858   T   T   T
  0.0998320196304903  0.8999171529038037  0.4988843131684817   T   T   T
  0.0000275986316893  0.8998638120623781  0.4284600713077822   T   T   T
  0.1000665546684303  0.7997866667427189  0.4285005726097211   T   T   T
  0.1998305315266009  0.9997713982417977  0.4988969995779726   T   T   T
  0.2998392490129405  0.0995768953131559  0.4990174188309524   T   T   T
  0.1998656702350274  0.1000044099398281  0.4285687015933419   T   T   T
  0.2999474041549917  0.9999094348312667  0.4284587252495839   T   T   T
  0.1995963014861175  0.1993351952613622  0.4996999727261482   T   T   T
  0.3002858946575557  0.3003101821725096  0.4978091149046264   T   T   T
  0.1995803164182135  0.2997998527703061  0.4287289577102129   T   T   T
  0.2996980495693791  0.1997463274887536  0.4287145879135466   T   T   T
  0.1998255929975343  0.4003756263901437  0.4974247963194358   T   T   T
  0.3003203761331505  0.5000625715836833  0.4979008789739510   T   T   T
  0.1993984459898570  0.5009382775586175  0.4290041310515065   T   T   T
  0.2997740590534406  0.4003002049432567  0.4284754276567284   T   T   T
  0.1982740375930092  0.6015820386058763  0.4995392088240180   T   T   T
  0.2979321206396222  0.7029312128879113  0.4986996563338550   T   T   T
  0.1998417100081298  0.6998772915499387  0.4288174096457169   T   T   T
  0.2992945919579810  0.6006314414871596  0.4290925287098943   T   T   T
  0.1995425777774713  0.8005934608050040  0.4989348556366053   T   T   T
  0.2998650786470876  0.9003926492414180  0.4988522647653539   T   T   T
  0.1999785658759166  0.8998615594912138  0.4284641789368635   T   T   T
  0.2997228482572467  0.7999711695739009  0.4285780576575604   T   T   T
  0.4001002886243938  0.9998780454496554  0.4988503358455887   T   T   T
  0.5005006528032183  0.0999062829730448  0.4990517135930261   T   T   T
  0.4001348234848976  0.0998595133856313  0.4285083663153486   T   T   T
  0.5001578575581505  0.0000133121940777  0.4285041889648511   T   T   T
  0.3994665537740829  0.1992471885877123  0.4984324665598976   T   T   T
  0.5004067320931398  0.2993842965848899  0.4980190334938683   T   T   T
  0.4000951878627674  0.2997864071152421  0.4285759116355052   T   T   T
  0.5007288570806310  0.1996409044753591  0.4291521332684027   T   T   T
  0.4000016785410097  0.4000804023579434  0.4987576538601672   T   T   T
  0.4996005930040752  0.5000733036272607  0.4984874257853846   T   T   T
  0.3997632026209530  0.5002815614820975  0.4285812536395781   T   T   T
  0.5001536622579579  0.3999117308056555  0.4286690578629262   T   T   T
  0.3999944726544200  0.6006497208466257  0.4983453275738654   T   T   T
  0.5004536670248996  0.7006327055321435  0.4984855855205197   T   T   T
  0.3994100215469203  0.7002078023918301  0.4290335879118885   T   T   T
  0.4997271856449501  0.6003714034967871  0.4284801921007144   T   T   T
  0.3997302075572549  0.8002650229609927  0.4989447484597989   T   T   T
  0.5000352989483332  0.9000211924756769  0.4988350850719101   T   T   T
  0.3998840058503319  0.8999233438323415  0.4284895496450787   T   T   T
  0.4999292147698995  0.8000232267816969  0.4285083597797907   T   T   T
  0.6001380136756609  0.9994635996130086  0.4988736547899393   T   T   T
  0.7005080903037850  0.0995015780421511  0.4989821881135583   T   T   T
  0.6001884185434747  0.1000877603435555  0.4286998534419624   T   T   T
  0.6999812527797076  0.9999967215458767  0.4284720321750015   T   T   T
  0.6036495437745160  0.1968341336039856  0.4995276847206824   T   T   T
  0.7001797153977023  0.2996510965156105  0.4988265875815188   T   T   T
  0.6003373790085575  0.2993151548811923  0.4288818536392256   T   T   T
  0.6999792473924202  0.1998364023597645  0.4286414417329354   T   T   T
  0.6005665531130617  0.4004675639460302  0.4984790078251109   T   T   T
  0.7005924153396421  0.4993668396306035  0.4987399883592118   T   T   T
  0.6002414497579949  0.4998332069552944  0.4284615885515706   T   T   T
  0.7001942496583737  0.3997673107949282  0.4284458451931599   T   T   T
  0.5997303115867680  0.5994366293964859  0.4967651640404256   T   T   T
  0.7009234015297992  0.7001331907585495  0.5011816597457397   T   T   T
  0.6005795074048237  0.7003087930843890  0.4288089536727213   T   T   T
  0.7004605646325359  0.6002698879677482  0.4286100019358443   T   T   T
  0.6002984612112954  0.8002377819858424  0.4989468234806793   T   T   T
  0.7001659546311245  0.9000544224826257  0.4989044021062909   T   T   T
  0.6001095138412751  0.8999567679191003  0.4284493228558333   T   T   T
  0.7001557136043814  0.7995856098887231  0.4287738434877966   T   T   T
  0.8001709249898710  0.9998347144220645  0.4988875099029997   T   T   T
  0.8999834617562144  0.0999430272593855  0.4989128400182494   T   T   T
  0.8000084010440176  0.1000499793161111  0.4284784764807767   T   T   T
  0.8999990897303434  0.9999502056993705  0.4284611967234540   T   T   T
  0.8005493359445737  0.1999380594652891  0.4988824149674329   T   T   T
  0.9000631383396183  0.3000208074536559  0.4988840730874244   T   T   T
  0.8000690406976858  0.2998666984761584  0.4284852417634539   T   T   T
  0.9000318207777624  0.2000225349288698  0.4284505225174300   T   T   T
  0.8002404565260903  0.3998363989516278  0.4988677215422967   T   T   T
  0.8996843768642719  0.5000644619590133  0.4989248778054716   T   T   T
  0.8001614850417127  0.5000106592134301  0.4284556288581172   T   T   T
  0.9001558227368491  0.4001358636608359  0.4284883544979010   T   T   T
  0.8002531516187190  0.5999077984619632  0.4988799784465385   T   T   T
  0.9000993462978570  0.7000100544733883  0.4989184529733635   T   T   T
  0.7997612367669191  0.6999999169606568  0.4287175685222948   T   T   T
  0.9001364310418580  0.6000208245100040  0.4284748354567114   T   T   T
  0.8000564600001923  0.7999180124879004  0.4989791971386808   T   T   T
  0.9000474266645071  0.8998579900385835  0.4989051265776681   T   T   T
  0.7999929959307224  0.8999134685321124  0.4284622763500749   T   T   T
  0.9000462053681133  0.7998521089313044  0.4284726672384025   T   T   T
  0.0000000000000000  0.0000000000000000  0.3590739999999997   F   F   F
  0.1000000000000014  0.1000000000000014  0.3590739999999997   F   F   F
  0.0000000000000000  0.1000000000000014  0.2886110000000031   F   F   F
  0.1000000000000014  0.0000000000000000  0.2886110000000031   F   F   F
  0.0000000000000000  0.2000000000000028  0.3590739999999997   F   F   F
  0.1000000000000014  0.2999999999999972  0.3590739999999997   F   F   F
  0.0000000000000000  0.2999999999999972  0.2886110000000031   F   F   F
  0.1000000000000014  0.2000000000000028  0.2886110000000031   F   F   F
  0.0000000000000000  0.3999999999999986  0.3590739999999997   F   F   F
  0.1000000000000014  0.5000000000000000  0.3590739999999997   F   F   F
  0.0000000000000000  0.5000000000000000  0.2886110000000031   F   F   F
  0.1000000000000014  0.3999999999999986  0.2886110000000031   F   F   F
  0.0000000000000000  0.6000000000000014  0.3590739999999997   F   F   F
  0.1000000000000014  0.7000000000000028  0.3590739999999997   F   F   F
  0.0000000000000000  0.7000000000000028  0.2886110000000031   F   F   F
  0.1000000000000014  0.6000000000000014  0.2886110000000031   F   F   F
  0.0000000000000000  0.7999999999999972  0.3590739999999997   F   F   F
  0.1000000000000014  0.8999999999999986  0.3590739999999997   F   F   F
  0.0000000000000000  0.8999999999999986  0.2886110000000031   F   F   F
  0.1000000000000014  0.7999999999999972  0.2886110000000031   F   F   F
  0.2000000000000028  0.0000000000000000  0.3590739999999997   F   F   F
  0.2999999999999972  0.1000000000000014  0.3590739999999997   F   F   F
  0.2000000000000028  0.1000000000000014  0.2886110000000031   F   F   F
  0.2999999999999972  0.0000000000000000  0.2886110000000031   F   F   F
  0.2000000000000028  0.2000000000000028  0.3590739999999997   F   F   F
  0.2999999999999972  0.2999999999999972  0.3590739999999997   F   F   F
  0.2000000000000028  0.2999999999999972  0.2886110000000031   F   F   F
  0.2999999999999972  0.2000000000000028  0.2886110000000031   F   F   F
  0.2000000000000028  0.3999999999999986  0.3590739999999997   F   F   F
  0.2999999999999972  0.5000000000000000  0.3590739999999997   F   F   F
  0.2000000000000028  0.5000000000000000  0.2886110000000031   F   F   F
  0.2999999999999972  0.3999999999999986  0.2886110000000031   F   F   F
  0.2000000000000028  0.6000000000000014  0.3590739999999997   F   F   F
  0.2999999999999972  0.7000000000000028  0.3590739999999997   F   F   F
  0.2000000000000028  0.7000000000000028  0.2886110000000031   F   F   F
  0.2999999999999972  0.6000000000000014  0.2886110000000031   F   F   F
  0.2000000000000028  0.7999999999999972  0.3590739999999997   F   F   F
  0.2999999999999972  0.8999999999999986  0.3590739999999997   F   F   F
  0.2000000000000028  0.8999999999999986  0.2886110000000031   F   F   F
  0.2999999999999972  0.7999999999999972  0.2886110000000031   F   F   F
  0.3999999999999986  0.0000000000000000  0.3590739999999997   F   F   F
  0.5000000000000000  0.1000000000000014  0.3590739999999997   F   F   F
  0.3999999999999986  0.1000000000000014  0.2886110000000031   F   F   F
  0.5000000000000000  0.0000000000000000  0.2886110000000031   F   F   F
  0.3999999999999986  0.2000000000000028  0.3590739999999997   F   F   F
  0.5000000000000000  0.2999999999999972  0.3590739999999997   F   F   F
  0.3999999999999986  0.2999999999999972  0.2886110000000031   F   F   F
  0.5000000000000000  0.2000000000000028  0.2886110000000031   F   F   F
  0.3999999999999986  0.3999999999999986  0.3590739999999997   F   F   F
  0.5000000000000000  0.5000000000000000  0.3590739999999997   F   F   F
  0.3999999999999986  0.5000000000000000  0.2886110000000031   F   F   F
  0.5000000000000000  0.3999999999999986  0.2886110000000031   F   F   F
  0.3999999999999986  0.6000000000000014  0.3590739999999997   F   F   F
  0.5000000000000000  0.7000000000000028  0.3590739999999997   F   F   F
  0.3999999999999986  0.7000000000000028  0.2886110000000031   F   F   F
  0.5000000000000000  0.6000000000000014  0.2886110000000031   F   F   F
  0.3999999999999986  0.7999999999999972  0.3590739999999997   F   F   F
  0.5000000000000000  0.8999999999999986  0.3590739999999997   F   F   F
  0.3999999999999986  0.8999999999999986  0.2886110000000031   F   F   F
  0.5000000000000000  0.7999999999999972  0.2886110000000031   F   F   F
  0.6000000000000014  0.0000000000000000  0.3590739999999997   F   F   F
  0.7000000000000028  0.1000000000000014  0.3590739999999997   F   F   F
  0.6000000000000014  0.1000000000000014  0.2886110000000031   F   F   F
  0.7000000000000028  0.0000000000000000  0.2886110000000031   F   F   F
  0.6000000000000014  0.2000000000000028  0.3590739999999997   F   F   F
  0.7000000000000028  0.2999999999999972  0.3590739999999997   F   F   F
  0.6000000000000014  0.2999999999999972  0.2886110000000031   F   F   F
  0.7000000000000028  0.2000000000000028  0.2886110000000031   F   F   F
  0.6000000000000014  0.3999999999999986  0.3590739999999997   F   F   F
  0.7000000000000028  0.5000000000000000  0.3590739999999997   F   F   F
  0.6000000000000014  0.5000000000000000  0.2886110000000031   F   F   F
  0.7000000000000028  0.3999999999999986  0.2886110000000031   F   F   F
  0.6000000000000014  0.6000000000000014  0.3590739999999997   F   F   F
  0.7000000000000028  0.7000000000000028  0.3590739999999997   F   F   F
  0.6000000000000014  0.7000000000000028  0.2886110000000031   F   F   F
  0.7000000000000028  0.6000000000000014  0.2886110000000031   F   F   F
  0.6000000000000014  0.7999999999999972  0.3590739999999997   F   F   F
  0.7000000000000028  0.8999999999999986  0.3590739999999997   F   F   F
  0.6000000000000014  0.8999999999999986  0.2886110000000031   F   F   F
  0.7000000000000028  0.7999999999999972  0.2886110000000031   F   F   F
  0.7999999999999972  0.0000000000000000  0.3590739999999997   F   F   F
  0.8999999999999986  0.1000000000000014  0.3590739999999997   F   F   F
  0.7999999999999972  0.1000000000000014  0.2886110000000031   F   F   F
  0.8999999999999986  0.0000000000000000  0.2886110000000031   F   F   F
  0.7999999999999972  0.2000000000000028  0.3590739999999997   F   F   F
  0.8999999999999986  0.2999999999999972  0.3590739999999997   F   F   F