Au 
 1.0000000000000000
    21.1388521970183838    0.0000000000000000    0.0000000000000000
     0.0000000000000000   21.1388521970183838    0.0000000000000000
     0.0000000000000000    0.0000000000000000   22.1138852197018352
  Au
   2
Direct
  0.5000000000000000  0.5000000000000000  0.7127287276688339
  0.5000000000000000  0.5000000000000000  0.5998279426373317
