au8                                     
   1.0000000000000000     
    20.0000000000000000    0.0000000000000000    0.0000000000000000
     0.0000000000000000   20.0000000000000000    0.0000000000000000
     0.0000000000000000    0.0000000000000000   20.0000000000000000
   Au
     8
Direct
  0.0079058464973372  0.9971901629879625  0.9971901629879625
  0.1400000000000006  0.9924150643606353  0.9924150643606353
  0.2720941535026640  0.9971901629879625  0.9971901629879625
  0.0728556319725868  0.1163110411243409  0.0080783075577173
  0.2071443680274143  0.1163110411243409  0.0080783075577173
  0.1400000000000006  0.1274258622993187  0.1274258622993187
  0.0728556319725868  0.0080783075577173  0.1163110411243409
  0.2071443680274143  0.0080783075577173  0.1163110411243409

  0.00000000E+00  0.00000000E+00  0.00000000E+00
  0.00000000E+00  0.00000000E+00  0.00000000E+00
  0.00000000E+00  0.00000000E+00  0.00000000E+00
  0.00000000E+00  0.00000000E+00  0.00000000E+00
  0.00000000E+00  0.00000000E+00  0.00000000E+00
  0.00000000E+00  0.00000000E+00  0.00000000E+00
  0.00000000E+00  0.00000000E+00  0.00000000E+00
  0.00000000E+00  0.00000000E+00  0.00000000E+00
