Mg  O                                   
   1.0000000000000000     
    21.1388521970183838    0.0000000000000000    0.0000000000000000
     0.0000000000000000   21.1388521970183838    0.0000000000000000
     0.0000000000000000    0.0000000000000000   30.0000000000000000
   Au   Mg   O 
    20   200   200
Selective dynamics
Direct
  0.4251292300468761  0.2111091382027501  0.5762279710387410   T   T   T
  0.5554247196605648  0.1936863412088775  0.5952715711934041   T   T   T
  0.6771894064436678  0.1766690993768479  0.6023704448483810   T   T   T
  0.7934405989642028  0.2334719694697016  0.5780678339138737   T   T   T
  0.5063080569064423  0.3168009272235778  0.5818158086651455   T   T   T
  0.6393879668444122  0.3011494812301823  0.5986981319353514   T   T   T
  0.7631599254042215  0.3630530231044269  0.5830387724088517   T   T   T
  0.5785155318783125  0.4191414968830034  0.5971841340369360   T   T   T
  0.6984442875824084  0.4752577051547681  0.5786907838117006   T   T   T
  0.6025070085605148  0.5740173542141306  0.5756572347648294   T   T   T
  0.4691005490734039  0.2351919490409697  0.6564255747161973   T   T   T
  0.5614170220212098  0.2312194847139722  0.7171809965981034   T   T   T
  0.6816499879235249  0.1915561473307754  0.6982667183980740   T   T   T
  0.7805049148576305  0.1451115450879495  0.6491144518918787   T   T   T
  0.5431602849278077  0.3410451571131733  0.6679720129353358   T   T   T
  0.6599687829184366  0.3160355886538981  0.7132239375215224   T   T   T
  0.7517631859958375  0.2806595636270898  0.6542418378174719   T   T   T
  0.6032630396000757  0.4320746058088502  0.7183116419432773   T   T   T
  0.6939546087194978  0.4070891824427137  0.6542131253236448   T   T   T
  0.6154954850503287  0.5162779271433577  0.6508197852918765   T   T   T
  0.0000129351185071  0.9999042430105310  0.4297156893448733   T   T   T
  0.0999640411605321  0.0998449785718646  0.4297314939623114   T   T   T
  0.0003017077579915  0.0995292451272154  0.4997792814327147   T   T   T
  0.0999547251445926  0.9996883709021949  0.4996324119576382   T   T   T
  0.0002010609993518  0.1998319104192852  0.4297028149736874   T   T   T
  0.1000523713669306  0.2999901532746963  0.4296884027127661   T   T   T
  0.0006237229828843  0.2999827811274443  0.4996190837769540   T   T   T
  0.1000005891634380  0.1998044373058067  0.4997009038713598   T   T   T
  0.0002467705328689  0.4000523955885602  0.4296886007951571   T   T   T
  0.1000500438685176  0.5001229705010225  0.4297153966017231   T   T   T
  0.0004323333740633  0.5002484434028217  0.4997361294489255   T   T   T
  0.1001062434399000  0.4002045166157573  0.4996678204617707   T   T   T
  0.0001360186243551  0.6001133850769489  0.4297322669145412   T   T   T
  0.1000046545896635  0.7000915457653720  0.4297099243495097   T   T   T
  0.0002145632126437  0.7002253475021594  0.4996554989170502   T   T   T
  0.1000471525871827  0.6002446542568987  0.4996571998521468   T   T   T
  0.0000617524518086  0.8000405925060718  0.4297044761717760   T   T   T
  0.0999796563084122  0.8999493871711145  0.4296937359989069   T   T   T
  0.0001430788558263  0.8999023864583555  0.4996427866449269   T   T   T
  0.0999977112489979  0.8000348043998330  0.4996303584808666   T   T   T
  0.1999264790199681  0.9998596384048826  0.4296944694823499   T   T   T
  0.2998617472429480  0.0997901110961622  0.4298880750028866   T   T   T
  0.1995685954623103  0.0994318904583314  0.4997375837049930   T   T   T
  0.2995481993953553  0.9994876318365340  0.4997435806559766   T   T   T
  0.1997236158174152  0.1999026452443181  0.4296997126233064   T   T   T
  0.2997167388397037  0.3000674685594996  0.4298543139265560   T   T   T
  0.1995375749406551  0.3002779678982457  0.4997372634904946   T   T   T
  0.2975711828875641  0.1996678069557644  0.5000457518768948   T   T   T
  0.1999079465905750  0.4001122112178118  0.4296982448595851   T   T   T
  0.2997851326245143  0.5001878355144982  0.4296979932428101   T   T   T
  0.1997745048049400  0.5003358932192921  0.4996648097029034   T   T   T
  0.2992433745548669  0.4005974422306731  0.4997994830737978   T   T   T
  0.1999037336005846  0.6001510779557112  0.4297042241824965   T   T   T
  0.2998179546515814  0.7001173769757308  0.4297203293088764   T   T   T
  0.1998396919250465  0.7001838405726117  0.4996469619528369   T   T   T
  0.2995590780488339  0.6003054898292010  0.4996971323513640   T   T   T
  0.1999134998962015  0.8000124835377920  0.4296995759411048   T   T   T
  0.2998969338813807  0.8999103821252875  0.4297134442548892   T   T   T
  0.1998136742174502  0.8998176340689596  0.4996213344769913   T   T   T
  0.2997142146812282  0.8001017976619192  0.4996411975692192   T   T   T
  0.3999676573381865  0.9996938308297292  0.4297160292881193   T   T   T
  0.5002578099021279  0.0996541586161279  0.4298012015223040   T   T   T
  0.3997757577183380  0.0975750319592877  0.5000585611275784   T   T   T
  0.5002761489195788  0.9995726593551266  0.4997683542138663   T   T   T
  0.3999690924267573  0.1998994306193099  0.4291724706558273   T   T   T
  0.4999967869979896  0.3001293557522993  0.4293778496397183   T   T   T
  0.3983194826954836  0.3023848381210409  0.5003020043519163   T   T   T
  0.5031406031311643  0.1980987947687816  0.5000008494135147   T   T   T
  0.3998567487656438  0.4003081771737551  0.4297503596323141   T   T   T
  0.4995315082929599  0.5001600484282497  0.4296694672688731   T   T   T
  0.3992083107876008  0.5002953712958169  0.4997853569599513   T   T   T
  0.4994208140841270  0.4015350221750966  0.5007724102389196   T   T   T
  0.3996275691787272  0.6002033372024761  0.4297144816366356   T   T   T
  0.4998330231794557  0.7001860523481888  0.4299002974077170   T   T   T
  0.3994538873852690  0.7004922892777994  0.4997591838531840   T   T   T
  0.4976360989487268  0.6004912183497301  0.5002725861950779   T   T   T
  0.3998677519566444  0.8000646720375761  0.4297039494103165   T   T   T
  0.5000049691798916  0.9000402437444603  0.4297293476459488   T   T   T
  0.3997929291148659  0.8998855914753673  0.4996952987176652   T   T   T
  0.4995707084538258  0.8004509541212673  0.4997478139744282   T   T   T
  0.6001494606968368  0.0001453904035721  0.4298226602435938   T   T   T
  0.7000464559261541  0.1000492323281124  0.4300339064030222   T   T   T
  0.6005122660041888  0.0995832974506250  0.5008603485604870   T   T   T
  0.7000655995950646  0.9997317449315702  0.4999970468558079   T   T   T
  0.6004687636308722  0.1997189853661255  0.4293027194160538   T   T   T
  0.6998648655196253  0.2993419702892174  0.4293721927628159   T   T   T
  0.6009432810161286  0.2996295709383963  0.5004831402640404   T   T   T
  0.6983299854999796  0.1995231898552719  0.5018488040517650   T   T   T
  0.5996866204413418  0.3995692950171970  0.4292554018024221   T   T   T
  0.7001788791948861  0.5000576278385311  0.4293487528004214   T   T   T
  0.5981813881585671  0.4976023294281466  0.4997625557946715   T   T   T
  0.6990654476827899  0.3979400127259280  0.4997432396484847   T   T   T
  0.5998679497757906  0.6002145701027952  0.4292086386962372   T   T   T
  0.7000840408097787  0.7003588984941995  0.4298830112647001   T   T   T
  0.5997009340695793  0.7023898675304177  0.5001511369844269   T   T   T
  0.7019992090466088  0.6019433509597836  0.5004241472056977   T   T   T
  0.5999955071812824  0.8003522231318919  0.4297304668233723   T   T   T
  0.7000860552838626  0.9001480569183452  0.4297762125484433   T   T   T
  0.6000552103493126  0.9001734463205631  0.4997699917020848   T   T   T
  0.7003550610766984  0.8005489012561173  0.4997814028140433   T   T   T
  0.8000560688036552 -0.0000473722589605  0.4298393209178747   T   T   T
  0.9000486582079216  0.0998614677503214  0.4299665717051329   T   T   T
  0.8002366635368423  0.0983004016186367  0.5007294277206003   T   T   T
  0.9003646239362688  0.9997020248913718  0.4998287826130407   T   T   T
  0.7999946366075035  0.1996522527085997  0.4293367886388058   T   T   T
  0.9004933751131388  0.2998467197002624  0.4296438244776093   T   T   T
  0.8011312285236253  0.3008171306758072  0.4990792128213922   T   T   T
  0.9020277520886545  0.1997351953678902  0.5002130081405957   T   T   T
  0.8001865641404368  0.4000272111787625  0.4292952369520102   T   T   T
  0.9003246875311939  0.5000513017362126  0.4298335159478768   T   T   T
  0.8018771803888025  0.5005112661962288  0.5005077784920429   T   T   T
  0.9016205769361806  0.3997604915373691  0.5000009340829857   T   T   T
  0.8003341518892879  0.6001568996837162  0.4298905743852814   T   T   T
  0.9001635408860988  0.7001261491497032  0.4297426712683230   T   T   T
  0.8006686208395074  0.7007287472361186  0.4998392316244486   T   T   T
  0.9006350219794953  0.6004105815050761  0.4998325324011239   T   T   T
  0.8001244368350842  0.8001582423888429  0.4297379500446801   T   T   T
  0.9000721172854542  0.9000153214663691  0.4297370832185587   T   T   T
  0.8002673641709560  0.9000376732200560  0.4997677715648961   T   T   T
  0.9003188120755071  0.8002187666645296  0.4996692787178060   T   T   T
  0.0000000000000000  0.0000000000000000  0.2886110000000031   F   F   F
  0.1000000000000014  0.1000000000000014  0.2886110000000031   F   F   F
  0.0000000000000000  0.1000000000000014  0.3590739999999997   F   F   F
  0.1000000000000014  0.0000000000000000  0.3590739999999997   F   F   F
  0.0000000000000000  0.2000000000000028  0.2886110000000031   F   F   F
  0.1000000000000014  0.2999999999999972  0.2886110000000031   F   F   F
  0.0000000000000000  0.2999999999999972  0.3590739999999997   F   F   F
  0.1000000000000014  0.2000000000000028  0.3590739999999997   F   F   F
  0.0000000000000000  0.3999999999999986  0.2886110000000031   F   F   F
  0.1000000000000014  0.5000000000000000  0.2886110000000031   F   F   F
  0.0000000000000000  0.5000000000000000  0.3590739999999997   F   F   F
  0.1000000000000014  0.3999999999999986  0.3590739999999997   F   F   F
  0.0000000000000000  0.6000000000000014  0.2886110000000031   F   F   F
  0.1000000000000014  0.7000000000000028  0.2886110000000031   F   F   F
  0.0000000000000000  0.7000000000000028  0.3590739999999997   F   F   F
  0.1000000000000014  0.6000000000000014  0.3590739999999997   F   F   F
  0.0000000000000000  0.7999999999999972  0.2886110000000031   F   F   F
  0.1000000000000014  0.8999999999999986  0.2886110000000031   F   F   F
  0.0000000000000000  0.8999999999999986  0.3590739999999997   F   F   F
  0.1000000000000014  0.7999999999999972  0.3590739999999997   F   F   F
  0.2000000000000028  0.0000000000000000  0.2886110000000031   F   F   F
  0.2999999999999972  0.1000000000000014  0.2886110000000031   F   F   F
  0.2000000000000028  0.1000000000000014  0.3590739999999997   F   F   F
  0.2999999999999972  0.0000000000000000  0.3590739999999997   F   F   F
  0.2000000000000028  0.2000000000000028  0.2886110000000031   F   F   F
  0.2999999999999972  0.2999999999999972  0.2886110000000031   F   F   F
  0.2000000000000028  0.2999999999999972  0.3590739999999997   F   F   F
  0.2999999999999972  0.2000000000000028  0.3590739999999997   F   F   F
  0.2000000000000028  0.3999999999999986  0.2886110000000031   F   F   F
  0.2999999999999972  0.5000000000000000  0.2886110000000031   F   F   F
  0.2000000000000028  0.5000000000000000  0.3590739999999997   F   F   F
  0.2999999999999972  0.3999999999999986  0.3590739999999997   F   F   F
  0.2000000000000028  0.6000000000000014  0.2886110000000031   F   F   F
  0.2999999999999972  0.7000000000000028  0.2886110000000031   F   F   F
  0.2000000000000028  0.7000000000000028  0.3590739999999997   F   F   F
  0.2999999999999972  0.6000000000000014  0.3590739999999997   F   F   F
  0.2000000000000028  0.7999999999999972  0.2886110000000031   F   F   F
  0.2999999999999972  0.8999999999999986  0.2886110000000031   F   F   F
  0.2000000000000028  0.8999999999999986  0.3590739999999997   F   F   F
  0.2999999999999972  0.7999999999999972  0.3590739999999997   F   F   F
  0.3999999999999986  0.0000000000000000  0.2886110000000031   F   F   F
  0.5000000000000000  0.1000000000000014  0.2886110000000031   F   F   F
  0.3999999999999986  0.1000000000000014  0.3590739999999997   F   F   F
  0.5000000000000000  0.0000000000000000  0.3590739999999997   F   F   F
  0.3999999999999986  0.2000000000000028  0.2886110000000031   F   F   F
  0.5000000000000000  0.2999999999999972  0.2886110000000031   F   F   F
  0.3999999999999986  0.2999999999999972  0.3590739999999997   F   F   F
  0.5000000000000000  0.2000000000000028  0.3590739999999997   F   F   F
  0.3999999999999986  0.3999999999999986  0.2886110000000031   F   F   F
  0.5000000000000000  0.5000000000000000  0.2886110000000031   F   F   F
  0.3999999999999986  0.5000000000000000  0.3590739999999997   F   F   F
  0.5000000000000000  0.3999999999999986  0.3590739999999997   F   F   F
  0.3999999999999986  0.6000000000000014  0.2886110000000031   F   F   F
  0.5000000000000000  0.7000000000000028  0.2886110000000031   F   F   F
  0.3999999999999986  0.7000000000000028  0.3590739999999997   F   F   F
  0.5000000000000000  0.6000000000000014  0.3590739999999997   F   F   F
  0.3999999999999986  0.7999999999999972  0.2886110000000031   F   F   F
  0.5000000000000000  0.8999999999999986  0.2886110000000031   F   F   F
  0.3999999999999986  0.8999999999999986  0.3590739999999997   F   F   F
  0.5000000000000000  0.7999999999999972  0.3590739999999997   F   F   F
  0.6000000000000014  0.0000000000000000  0.2886110000000031   F   F   F
  0.7000000000000028  0.1000000000000014  0.2886110000000031   F   F   F
  0.6000000000000014  0.1000000000000014  0.3590739999999997   F   F   F
  0.7000000000000028  0.0000000000000000  0.3590739999999997   F   F   F
  0.6000000000000014  0.2000000000000028  0.2886110000000031   F   F   F
  0.7000000000000028  0.2999999999999972  0.2886110000000031   F   F   F
  0.6000000000000014  0.2999999999999972  0.3590739999999997   F   F   F
  0.7000000000000028  0.2000000000000028  0.3590739999999997   F   F   F
  0.6000000000000014  0.3999999999999986  0.2886110000000031   F   F   F
  0.7000000000000028  0.5000000000000000  0.2886110000000031   F   F   F
  0.6000000000000014  0.5000000000000000  0.3590739999999997   F   F   F
  0.7000000000000028  0.3999999999999986  0.3590739999999997   F   F   F
  0.6000000000000014  0.6000000000000014  0.2886110000000031   F   F   F
  0.7000000000000028  0.7000000000000028  0.2886110000000031   F   F   F
  0.6000000000000014  0.7000000000000028  0.3590739999999997   F   F   F
  0.7000000000000028  0.6000000000000014  0.3590739999999997   F   F   F
  0.6000000000000014  0.7999999999999972  0.2886110000000031   F   F   F
  0.7000000000000028  0.8999999999999986  0.2886110000000031   F   F   F
  0.6000000000000014  0.8999999999999986  0.3590739999999997   F   F   F
  0.7000000000000028  0.7999999999999972  0.3590739999999997   F   F   F
  0.7999999999999972  0.0000000000000000  0.2886110000000031   F   F   F
  0.8999999999999986  0.1000000000000014  0.2886110000000031   F   F   F
  0.7999999999999972  0.1000000000000014  0.3590739999999997   F   F   F
  0.8999999999999986  0.0000000000000000  0.3590739999999997   F   F   F
  0.7999999999999972  0.2000000000000028  0.2886110000000031   F   F   F
  0.8999999999999986  0.2999999999999972  0.2886110000000031   F   F   F
  0.7999999999999972  0.2999999999999972  0.3590739999999997   F   F   F
  0.8999999999999986  0.2000000000000028  0.3590739999999997   F   F   F
  0.7999999999999972  0.3999999999999986  0.2886110000000031   F   F   F
  0.8999999999999986  0.5000000000000000  0.2886110000000031   F   F   F
  0.7999999999999972  0.5000000000000000  0.3590739999999997   F   F   F
  0.8999999999999986  0.3999999999999986  0.3590739999999997   F   F   F
  0.7999999999999972  0.6000000000000014  0.2886110000000031   F   F   F
  0.8999999999999986  0.7000000000000028  0.2886110000000031   F   F   F
  0.7999999999999972  0.7000000000000028  0.3590739999999997   F   F   F
  0.8999999999999986  0.6000000000000014  0.3590739999999997   F   F   F
  0.7999999999999972  0.7999999999999972  0.2886110000000031   F   F   F
  0.8999999999999986  0.8999999999999986  0.2886110000000031   F   F   F
  0.7999999999999972  0.8999999999999986  0.3590739999999997   F   F   F
  0.8999999999999986  0.7999999999999972  0.3590739999999997   F   F   F
  0.0002224278022705  0.9997675020430382  0.5007722570160440   T   T   T
  0.1000791790510404  0.0997307632991005  0.5007947008453638   T   T   T
  0.0000918887205704  0.0999640658948435  0.4295083955974998   T   T   T
  0.1000468292566834 -0.0000606599270220  0.4294555182177730   T   T   T
  0.0006265759680370  0.1998463545865782  0.5007578610143474   T   T   T
  0.1001445612316150  0.3000585083340744  0.5007274421736569   T   T   T
  0.0002900068054107  0.2999764709589154  0.4293480258967704   T   T   T
  0.1000839636156743  0.1999292725149233  0.4294612310283957   T   T   T
  0.0005042961689059  0.4001119580084468  0.5007453203569492   T   T   T
  0.1000664110789824  0.5002093855656462  0.5007894202930032   T   T   T
  0.0000672844330366  0.5000389619428421  0.4294896727265823   T   T   T
  0.1000906979103741  0.4000522583352860  0.4294613400434380   T   T   T
  0.0001521295419600  0.6001623673221905  0.5008107049317148   T   T   T
  0.0999829494844888  0.7001137878366627  0.5008001858167748   T   T   T
  0.0000115325778895  0.7000006945525423  0.4294634226909612   T   T   T
  0.0999811646113354  0.6000774926915620  0.4294656353442768   T   T   T
  0.0001440919144284  0.8000140503918421  0.5007759516681988   T   T   T
  0.1000234515203655  0.8998806139974749  0.5007691155788480   T   T   T
  0.0000571655272628  0.8999549591982187  0.4294464328320017   T   T   T
  0.0999957142786162  0.7999965594978096  0.4294461659347245   T   T   T
  0.1998832348082179  0.9997806122267026  0.5007700289258116   T   T   T
  0.2997748075129549  0.0998008602280141  0.5010088220247659   T   T   T
  0.2000685717788193  0.1000136931141183  0.4295163522110534   T   T   T
  0.2999961075165344 -0.0000010543448173  0.4295110574866132   T   T   T
  0.1995191649458717  0.1998516657076837  0.5008573015487073   T   T   T
  0.2995054767153870  0.2999134039291376  0.5008640802467671   T   T   T
  0.2000284071594648  0.2998874791601812  0.4295008491331500   T   T   T
  0.3004027358847170  0.1999564439044809  0.4299529161779901   T   T   T
  0.1998318621979214  0.4001720051214493  0.5007639607084075   T   T   T
  0.2996142097363393  0.5002714452614875  0.5007413661517535   T   T   T
  0.1999516106118857  0.5000840808291525  0.4294641120056676   T   T   T
  0.2999105679002816  0.3999625196260969  0.4295060005611249   T   T   T
  0.1998450529712114  0.6002194396817013  0.5007847957226733   T   T   T
  0.2997546546815428  0.7002235687147353  0.5007792039895592   T   T   T
  0.1999163478861362  0.7000713571254303  0.4294463840846549   T   T   T
  0.2998345385551837  0.6001556805440501  0.4294549005693329   T   T   T
  0.1998678269645082  0.8000189875670886  0.5007802382977259   T   T   T
  0.2997694312803305  0.8998776504291758  0.5007813406210450   T   T   T
  0.1999837660594804  0.8999755772682977  0.4294515322869060   T   T   T
  0.2999146106575469  0.7999996778319780  0.4294547913144947   T   T   T
  0.3997328453694085  0.9994307549108548  0.5008096433561968   T   T   T
  0.4995837281025200  0.0992584515193678  0.5001462569004644   T   T   T
  0.3997797357666205  0.1004306687712634  0.4299064903325303   T   T   T
  0.4997931913545468  0.9998163829827860  0.4294391603306290   T   T   T
  0.3981711023573947  0.1992101484678377  0.5032873109335568   T   T   T
  0.4989811819804813  0.2999319531384949  0.5003115639523911   T   T   T
  0.3998521004305248  0.2994722151832994  0.4300903816176820   T   T   T
  0.4989786907278908  0.2001306744074102  0.4298392372484282   T   T   T
  0.3993600552698865  0.4006046166529201  0.5004720236813442   T   T   T
  0.4992894209562699  0.5006937850069394  0.4998506691029054   T   T   T
  0.3997039733333888  0.5002985757314389  0.4293825133200967   T   T   T
  0.4995802091953098  0.4000398989382539  0.4294744470443194   T   T   T
  0.3993067893970878  0.6003078119308606  0.5007558280107524   T   T   T
  0.4997955676133600  0.7002587152048850  0.5008774393640590   T   T   T
  0.3999496686756388  0.7000313908092770  0.4295152338782852   T   T   T
  0.5003570828109819  0.6002298605666855  0.4298166005034803   T   T   T
  0.3997582254280394  0.8001108163508370  0.5007741826406737   T   T   T
  0.4998558625482221  0.8999263860359407  0.5007761088455359   T   T   T
  0.3998938762159362  0.8999122034711162  0.4294625947206704   T   T   T
  0.5000310436081113  0.7999656975161213  0.4295119784745151   T   T   T
  0.6000438006406150  0.9997387110681596  0.5007988026514395   T   T   T
  0.7004726800269842  0.0994495912372678  0.5004689439414692   T   T   T
  0.5999696120000105  0.0997123526954092  0.4293485742055546   T   T   T
  0.7002028514952053 -0.0001252533912427  0.4295327361334850   T   T   T
  0.6000919082331750  0.1998200710080592  0.4977935793350795   T   T   T
  0.7001107422521580  0.2996106369617422  0.4982621987900817   T   T   T
  0.5995068140333709  0.3000096123635957  0.4290659805550594   T   T   T
  0.7009461440868606  0.1997249582813442  0.4295424857778480   T   T   T
  0.5998604505832412  0.3999437757718067  0.4984593929570284   T   T   T
  0.7005090781027217  0.5014752869192060  0.5007472738784415   T   T   T
  0.6002735419499405  0.5007439011494191  0.4298449368996307   T   T   T
  0.7004433914992219  0.4005212653245865  0.4294853069959525   T   T   T
  0.5996463459162861  0.6017595235616361  0.5023432280598282   T   T   T
  0.7000394464732765  0.7004649382495116  0.5008963923372610   T   T   T
  0.6000512468559381  0.6996649167656193  0.4298888791724581   T   T   T
  0.6996475104803583  0.5999371287450115  0.4301276371462985   T   T   T
  0.5999419838574966  0.8004630165130866  0.5008394693366710   T   T   T
  0.7001572186180576  0.8999020622772622  0.5008147897261643   T   T   T
  0.6000078468997521  0.8999984830038802  0.4294927890597210   T   T   T
  0.6999803782170220  0.7999772533509125  0.4295157775323837   T   T   T
  0.8003437495307676  0.9995149663365767  0.5008587300028776   T   T   T
  0.9004239082396465  0.0997743531535386  0.5009528687798452   T   T   T
  0.8002922716244472  0.1002675235548384  0.4299253513070853   T   T   T
  0.9000927859155371 -0.0000517249264430  0.4295211493617563   T   T   T
  0.8014374915044039  0.1990044872578036  0.5025153978596300   T   T   T
  0.9010351951575905  0.2999910715845356  0.4999288638279243   T   T   T
  0.8004284724058673  0.2998244724871197  0.4295296125488000   T   T   T
  0.8998387090315894  0.1998754857931613  0.4297636562322469   T   T   T
  0.8009272892220408  0.4000776618828229  0.5011807889603093   T   T   T
  0.9005224787740190  0.4999829477047096  0.5008985059975466   T   T   T
  0.7999225846454162  0.4999419050896357  0.4299497976457755   T   T   T
  0.8999122104822938  0.4001458664078739  0.4295937113395820   T   T   T
  0.8005375834024687  0.6002719445578950  0.5009828198146677   T   T   T
  0.9002384203291167  0.7001800038323495  0.5008109915429085   T   T   T
  0.7999605272682102  0.6999151876662226  0.4295817413739582   T   T   T
  0.9000123469851443  0.5999758937298072  0.4295543945131008   T   T   T
  0.8002384434998518  0.8000899106845398  0.5008157666272816   T   T   T
  0.9002675448503955  0.8998644496425841  0.5007926985537868   T   T   T
  0.8001005668059408  0.8999080628803194  0.4294965710850161   T   T   T
  0.9000478570304008  0.7999571159589070  0.4294702533961267   T   T   T
  0.0000000000000000  0.0000000000000000  0.3590739999999997   F   F   F
  0.1000000000000014  0.1000000000000014  0.3590739999999997   F   F   F
  0.0000000000000000  0.1000000000000014  0.2886110000000031   F   F   F
  0.1000000000000014  0.0000000000000000  0.2886110000000031   F   F   F
  0.0000000000000000  0.2000000000000028  0.3590739999999997   F   F   F
  0.1000000000000014  0.2999999999999972  0.3590739999999997   F   F   F
  0.0000000000000000  0.2999999999999972  0.2886110000000031   F   F   F
  0.1000000000000014  0.2000000000000028  0.2886110000000031   F   F   F
  0.0000000000000000  0.3999999999999986  0.3590739999999997   F   F   F
  0.1000000000000014  0.5000000000000000  0.3590739999999997   F   F   F
  0.0000000000000000  0.5000000000000000  0.2886110000000031   F   F   F
  0.1000000000000014  0.3999999999999986  0.2886110000000031   F   F   F
  0.0000000000000000  0.6000000000000014  0.3590739999999997   F   F   F
  0.1000000000000014  0.7000000000000028  0.3590739999999997   F   F   F
  0.0000000000000000  0.7000000000000028  0.2886110000000031   F   F   F
  0.1000000000000014  0.6000000000000014  0.2886110000000031   F   F   F
  0.0000000000000000  0.7999999999999972  0.3590739999999997   F   F   F
  0.1000000000000014  0.8999999999999986  0.3590739999999997   F   F   F
  0.0000000000000000  0.8999999999999986  0.2886110000000031   F   F   F
  0.1000000000000014  0.7999999999999972  0.2886110000000031   F   F   F
  0.2000000000000028  0.0000000000000000  0.3590739999999997   F   F   F
  0.2999999999999972  0.1000000000000014  0.3590739999999997   F   F   F
  0.2000000000000028  0.1000000000000014  0.2886110000000031   F   F   F
  0.2999999999999972  0.0000000000000000  0.2886110000000031   F   F   F
  0.2000000000000028  0.2000000000000028  0.3590739999999997   F   F   F
  0.2999999999999972  0.2999999999999972  0.3590739999999997   F   F   F
  0.2000000000000028  0.2999999999999972  0.2886110000000031   F   F   F
  0.2999999999999972  0.2000000000000028  0.2886110000000031   F   F   F
  0.2000000000000028  0.3999999999999986  0.3590739999999997   F   F   F
  0.2999999999999972  0.5000000000000000  0.3590739999999997   F   F   F
  0.2000000000000028  0.5000000000000000  0.2886110000000031   F   F   F
  0.2999999999999972  0.3999999999999986  0.2886110000000031   F   F   F
  0.2000000000000028  0.6000000000000014  0.3590739999999997   F   F   F
  0.2999999999999972  0.7000000000000028  0.3590739999999997   F   F   F
  0.2000000000000028  0.7000000000000028  0.2886110000000031   F   F   F
  0.2999999999999972  0.6000000000000014  0.2886110000000031   F   F   F
  0.2000000000000028  0.7999999999999972  0.3590739999999997   F   F   F
  0.2999999999999972  0.8999999999999986  0.3590739999999997   F   F   F
  0.2000000000000028  0.8999999999999986  0.2886110000000031   F   F   F
  0.2999999999999972  0.7999999999999972  0.2886110000000031   F   F   F
  0.3999999999999986  0.0000000000000000  0.3590739999999997   F   F   F
  0.5000000000000000  0.1000000000000014  0.3590739999999997   F   F   F
  0.3999999999999986  0.1000000000000014  0.2886110000000031   F   F   F
  0.5000000000000000  0.0000000000000000  0.2886110000000031   F   F   F
  0.3999999999999986  0.2000000000000028  0.3590739999999997   F   F   F
  0.5000000000000000  0.2999999999999972  0.3590739999999997   F   F   F
  0.3999999999999986  0.2999999999999972  0.2886110000000031   F   F   F
  0.5000000000000000  0.2000000000000028  0.2886110000000031   F   F   F
  0.3999999999999986  0.3999999999999986  0.3590739999999997   F   F   F
  0.5000000000000000  0.5000000000000000  0.3590739999999997   F   F   F
  0.3999999999999986  0.5000000000000000  0.2886110000000031   F   F   F
  0.5000000000000000  0.3999999999999986  0.2886110000000031   F   F   F
  0.3999999999999986  0.6000000000000014  0.3590739999999997   F   F   F
  0.5000000000000000  0.7000000000000028  0.3590739999999997   F   F   F
  0.3999999999999986  0.7000000000000028  0.2886110000000031   F   F   F
  0.5000000000000000  0.6000000000000014  0.2886110000000031   F   F   F
  0.3999999999999986  0.7999999999999972  0.3590739999999997   F   F   F
  0.5000000000000000  0.8999999999999986  0.3590739999999997   F   F   F
  0.3999999999999986  0.8999999999999986  0.2886110000000031   F   F   F
  0.5000000000000000  0.7999999999999972  0.2886110000000031   F   F   F
  0.6000000000000014  0.0000000000000000  0.3590739999999997   F   F   F
  0.7000000000000028  0.1000000000000014  0.3590739999999997   F   F   F
  0.6000000000000014  0.1000000000000014  0.2886110000000031   F   F   F
  0.7000000000000028  0.0000000000000000  0.2886110000000031   F   F   F
  0.6000000000000014  0.2000000000000028  0.3590739999999997   F   F   F
  0.7000000000000028  0.2999999999999972  0.3590739999999997   F   F   F
  0.6000000000000014  0.2999999999999972  0.2886110000000031   F   F   F
  0.7000000000000028  0.2000000000000028  0.2886110000000031   F   F   F
  0.6000000000000014  0.3999999999999986  0.3590739999999997   F   F   F
  0.7000000000000028  0.5000000000000000  0.3590739999999997   F   F   F
  0.6000000000000014  0.5000000000000000  0.2886110000000031   F   F   F
  0.7000000000000028  0.3999999999999986  0.2886110000000031   F   F   F
  0.6000000000000014  0.6000000000000014  0.3590739999999997   F   F   F
  0.7000000000000028  0.7000000000000028  0.3590739999999997   F   F   F
  0.6000000000000014  0.7000000000000028  0.2886110000000031   F   F   F
  0.7000000000000028  0.6000000000000014  0.2886110000000031   F   F   F
  0.6000000000000014  0.7999999999999972  0.3590739999999997   F   F   F
  0.7000000000000028  0.8999999999999986  0.3590739999999997   F   F   F
  0.6000000000000014  0.8999999999999986  0.2886110000000031   F   F   F
  0.7000000000000028  0.7999999999999972  0.2886110000000031   F   F   F
  0.7999999999999972  0.0000000000000000  0.3590739999999997   F   F   F
  0.8999999999999986  0.1000000000000014  0.3590739999999997   F   F   F
  0.7999999999999972  0.1000000000000014  0.2886110000000031   F   F   F
  0.8999999999999986  0.0000000000000000  0.2886110000000031   F   F   F
  0.7999999999999972  0.2000000000000028  0.3590739999999997   F   F   F
  0.8999999999999986  0.2999999999999972  0.3590739999999997   F   F   F