Mg  O                                   
   1.0000000000000000     
    21.1388521970183838    0.0000000000000000    0.0000000000000000
     0.0000000000000000   21.1388521970183838    0.0000000000000000
     0.0000000000000000    0.0000000000000000   30.0000000000000000
   Au   Mg   O 
    20   200   200
Selective dynamics
Direct
  0.4282064254147634  0.2112751458374753  0.5786198891402474   T   T   T
  0.5569006991473135  0.1931004435636195  0.5971467182529518   T   T   T
  0.6775618592430713  0.1765418421246144  0.6092897995725084   T   T   T
  0.7908860882155981  0.2338236682413628  0.5807140136927802   T   T   T
  0.5070479404892686  0.3162613904293631  0.5868161669132509   T   T   T
  0.6393546162346979  0.2999841660897024  0.6023377584294212   T   T   T
  0.7597198398614297  0.3620265206667961  0.5855137435738997   T   T   T
  0.5794231581193880  0.4164626560768346  0.6048941656661885   T   T   T
  0.6960497411519181  0.4737674291612563  0.5804616902110190   T   T   T
  0.6047552286449231  0.5747006683859357  0.5770259919052847   T   T   T
  0.4722415803967335  0.2323302918127107  0.6599989304190773   T   T   T
  0.5629802235570496  0.2299273315529450  0.7223501937151137   T   T   T
  0.6837523294436862  0.1930376713174802  0.7053167915748225   T   T   T
  0.7818334055534070  0.1483171217041530  0.6553918281054090   T   T   T
  0.5415806844730767  0.3394236877375870  0.6747061403961233   T   T   T
  0.6595884591088260  0.3175055015701025  0.7174432231796367   T   T   T
  0.7508541607288340  0.2813536009272842  0.6580245400804534   T   T   T
  0.6033064339212538  0.4338159834545926  0.7203215282468023   T   T   T
  0.6947961066924877  0.4072182460948552  0.6577223172216994   T   T   T
  0.6176945514852186  0.5183275190505684  0.6528635059428435   T   T   T
 -0.0000133703542981  0.9999504693952089  0.4298703605794388   T   T   T
  0.0999564215170216  0.0998937767964867  0.4298884561198475   T   T   T
  0.0002643347094105  0.0996157775997257  0.4998478480197174   T   T   T
  0.0999656270901325  0.9997453173733024  0.4996635219570711   T   T   T
  0.0001034688234319  0.1998762122254115  0.4299456882500501   T   T   T
  0.1000377964306429  0.2999855210633424  0.4298697211920948   T   T   T
  0.0005161264108572  0.2999931005186108  0.4997437265211385   T   T   T
  0.1000009177989887  0.1998500595982600  0.4997730009744493   T   T   T
  0.0001676728784652  0.4000144492749645  0.4298901562213980   T   T   T
  0.1000512335690951  0.5000869585878279  0.4298552715866810   T   T   T
  0.0003846596294062  0.5001834742958063  0.4997679468864526   T   T   T
  0.1001051961581529  0.4001539925046254  0.4996960518330974   T   T   T
  0.0001168307909196  0.6000857837135929  0.4298750724246328   T   T   T
  0.1000201792326806  0.7000674761988095  0.4298440609022539   T   T   T
  0.0002060743275291  0.7001938477259723  0.4996759393016613   T   T   T
  0.1000710337437963  0.6002000495215973  0.4996766281910314   T   T   T
  0.0000527954673289  0.8000377007825850  0.4298379892171267   T   T   T
  0.0999803343138207  0.8999606196335832  0.4298324529517834   T   T   T
  0.0001272209731547  0.8999261333641216  0.4996708414912525   T   T   T
  0.1000174927794935  0.8000270493663355  0.4996550847692219   T   T   T
  0.1999483183634669  0.9998886358472637  0.4298438549987150   T   T   T
  0.2999473448911447  0.0998755037136724  0.4301376916246801   T   T   T
  0.1996294525952667  0.0995178228837685  0.4997874034077864   T   T   T
  0.2996256876890308  0.9995565450771792  0.4997940510951284   T   T   T
  0.1998072086520776  0.1999329625043962  0.4299381364234086   T   T   T
  0.2998933714367105  0.3000457306885794  0.4301636415087913   T   T   T
  0.1996340053948339  0.3002670010493937  0.4998136306131603   T   T   T
  0.2978863332323894  0.1997829017596896  0.5004860227221871   T   T   T
  0.1999719644976507  0.4000826301033645  0.4298701459663069   T   T   T
  0.2998983527290990  0.5001200201927274  0.4299059954652241   T   T   T
  0.1998533878461266  0.5002626050683663  0.4996823523766919   T   T   T
  0.2994687621132585  0.4004780604715302  0.4999230314176286   T   T   T
  0.1999432165082035  0.6001114170026077  0.4298498883824556   T   T   T
  0.2998727725066805  0.7000799629276900  0.4298664913668143   T   T   T
  0.1999033714382844  0.7001402582374915  0.4996804056679667   T   T   T
  0.2996734541917187  0.6002128680534076  0.4997421510584614   T   T   T
  0.1999434507303891  0.8000009897596913  0.4298333932116856   T   T   T
  0.2999363775284128  0.8999190864269835  0.4298615366542439   T   T   T
  0.1998542582371096  0.8998382319092270  0.4996576943711139   T   T   T
  0.2997704962421921  0.8000779036324520  0.4996665450695713   T   T   T
  0.4000089911980066  0.9997921963918763  0.4299426615662036   T   T   T
  0.5002702489096593  0.0998254188207348  0.4301466360138128   T   T   T
  0.3999381010970082  0.0978466940162661  0.5005023812414897   T   T   T
  0.5002919166818751  0.9997006083782404  0.4998901320162338   T   T   T
  0.4001194726339534  0.1999796441208352  0.4293920747162435   T   T   T
  0.5001506549154920  0.3001331673513524  0.4299845172967407   T   T   T
  0.3989147363960393  0.3022080208622652  0.5010211752159076   T   T   T
  0.5031142001165088  0.1985637193020905  0.5008258988650278   T   T   T
  0.4000445831925262  0.4002107874613350  0.4300969210556214   T   T   T
  0.4996940555180696  0.4999969980064228  0.4301125519464735   T   T   T
  0.3994782012937526  0.5001130784455935  0.5000025359627890   T   T   T
  0.4997600253577275  0.4009107240246927  0.5015265183545012   T   T   T
  0.3997392224733428  0.6001036413589390  0.4299435837391595   T   T   T
  0.4998931263720665  0.7000936336423051  0.4301140169337743   T   T   T
  0.3995324945564528  0.7004252088549858  0.4998025107381971   T   T   T
  0.4978188590992395  0.6003184722755017  0.5006402367525742   T   T   T
  0.3999176678778087  0.8000500340565730  0.4298501667087184   T   T   T
  0.5000246521045673  0.9000771570596828  0.4299045738100977   T   T   T
  0.3998523829560484  0.8999052279976965  0.4997298080620630   T   T   T
  0.4996280031486024  0.8003952816481416  0.4997863062102753   T   T   T
  0.6001535512870272  0.0002159679254886  0.4300165306003724   T   T   T
  0.7000365436606720  0.1001916654911962  0.4303828436239858   T   T   T
  0.6004242025289691  0.0996846041885344  0.5011477528715587   T   T   T
  0.7000191051024177  0.9998826784176870  0.5001238866869049   T   T   T
  0.6004868139595242  0.1998849665594467  0.4299374330724694   T   T   T
  0.6998285107470684  0.2994068052806954  0.4300476498034498   T   T   T
  0.6006990889019358  0.2998550003036570  0.5016298155869239   T   T   T
  0.6983033976238086  0.1995940291710157  0.5027079086161242   T   T   T
  0.5997549495836045  0.3995115757287207  0.4299318011308220   T   T   T
  0.7000996235646896  0.4999071865234084  0.4298377042000353   T   T   T
  0.5982109657239287  0.4973834263459318  0.5006949630717995   T   T   T
  0.6991093697444748  0.3979386984404061  0.5006785510122920   T   T   T
  0.5999268735112958  0.6000671069173038  0.4295586746377379   T   T   T
  0.7000615562107003  0.7002517758079726  0.4301306167758843   T   T   T
  0.5997729052078218  0.7022187203261810  0.5004384431465377   T   T   T
  0.7019923518933623  0.6017018469122111  0.5009957775901466   T   T   T
  0.6000051326615823  0.8002900804244548  0.4299243283636594   T   T   T
  0.7000766980476086  0.9001820850809163  0.4299506144186283   T   T   T
  0.6000651731218281  0.9001728841072180  0.4998078721189404   T   T   T
  0.7003380067807031  0.8004911714284418  0.4998240700580932   T   T   T
  0.8000259263663786  0.0000418746498480  0.4300681409878700   T   T   T
  0.8999731012568628  0.0999550925490608  0.4302121276858489   T   T   T
  0.8001074332792254  0.0985243838790655  0.5011095637414662   T   T   T
  0.9002986953675747  0.9997654584585369  0.4998888737387966   T   T   T
  0.7998673401687907  0.1998283685850010  0.4296882155559187   T   T   T
  0.9002957465128828  0.2998517715194230  0.4300133227433530   T   T   T
  0.8008996750803001  0.3008179705649565  0.5002129242840445   T   T   T
  0.9017601905602729  0.1998414602302228  0.5006992364552838   T   T   T
  0.8000420927551105  0.3998993217945255  0.4298182911600824   T   T   T
  0.9002253115184586  0.4999867355042572  0.4300658733552877   T   T   T
  0.8016774801110024  0.5002203142066696  0.5009221176622650   T   T   T
  0.9013116031957327  0.3997250970494969  0.5002427136836362   T   T   T
  0.8002586838124512  0.6000532799638205  0.4301574436404926   T   T   T
  0.9001344912507899  0.7001028498291100  0.4298953676869428   T   T   T
  0.8006079896975236  0.7006454644520403  0.4999153223893770   T   T   T
  0.9005599980975393  0.6003304848099902  0.4998971721996695   T   T   T
  0.8000983849521747  0.8001457257115629  0.4298910394049164   T   T   T
  0.9000487364607987  0.9000344433369839  0.4298874965356965   T   T   T
  0.8002073723571704  0.9000547075706171  0.4998071785331820   T   T   T
  0.9002883983421659  0.8002012607656854  0.4996855815458070   T   T   T
  0.0000000000000000  0.0000000000000000  0.2886110000000031   F   F   F
  0.1000000000000014  0.1000000000000014  0.2886110000000031   F   F   F
  0.0000000000000000  0.1000000000000014  0.3590739999999997   F   F   F
  0.1000000000000014  0.0000000000000000  0.3590739999999997   F   F   F
  0.0000000000000000  0.2000000000000028  0.2886110000000031   F   F   F
  0.1000000000000014  0.2999999999999972  0.2886110000000031   F   F   F
  0.0000000000000000  0.2999999999999972  0.3590739999999997   F   F   F
  0.1000000000000014  0.2000000000000028  0.3590739999999997   F   F   F
  0.0000000000000000  0.3999999999999986  0.2886110000000031   F   F   F
  0.1000000000000014  0.5000000000000000  0.2886110000000031   F   F   F
  0.0000000000000000  0.5000000000000000  0.3590739999999997   F   F   F
  0.1000000000000014  0.3999999999999986  0.3590739999999997   F   F   F
  0.0000000000000000  0.6000000000000014  0.2886110000000031   F   F   F
  0.1000000000000014  0.7000000000000028  0.2886110000000031   F   F   F
  0.0000000000000000  0.7000000000000028  0.3590739999999997   F   F   F
  0.1000000000000014  0.6000000000000014  0.3590739999999997   F   F   F
  0.0000000000000000  0.7999999999999972  0.2886110000000031   F   F   F
  0.1000000000000014  0.8999999999999986  0.2886110000000031   F   F   F
  0.0000000000000000  0.8999999999999986  0.3590739999999997   F   F   F
  0.1000000000000014  0.7999999999999972  0.3590739999999997   F   F   F
  0.2000000000000028  0.0000000000000000  0.2886110000000031   F   F   F
  0.2999999999999972  0.1000000000000014  0.2886110000000031   F   F   F
  0.2000000000000028  0.1000000000000014  0.3590739999999997   F   F   F
  0.2999999999999972  0.0000000000000000  0.3590739999999997   F   F   F
  0.2000000000000028  0.2000000000000028  0.2886110000000031   F   F   F
  0.2999999999999972  0.2999999999999972  0.2886110000000031   F   F   F
  0.2000000000000028  0.2999999999999972  0.3590739999999997   F   F   F
  0.2999999999999972  0.2000000000000028  0.3590739999999997   F   F   F
  0.2000000000000028  0.3999999999999986  0.2886110000000031   F   F   F
  0.2999999999999972  0.5000000000000000  0.2886110000000031   F   F   F
  0.2000000000000028  0.5000000000000000  0.3590739999999997   F   F   F
  0.2999999999999972  0.3999999999999986  0.3590739999999997   F   F   F
  0.2000000000000028  0.6000000000000014  0.2886110000000031   F   F   F
  0.2999999999999972  0.7000000000000028  0.2886110000000031   F   F   F
  0.2000000000000028  0.7000000000000028  0.3590739999999997   F   F   F
  0.2999999999999972  0.6000000000000014  0.3590739999999997   F   F   F
  0.2000000000000028  0.7999999999999972  0.2886110000000031   F   F   F
  0.2999999999999972  0.8999999999999986  0.2886110000000031   F   F   F
  0.2000000000000028  0.8999999999999986  0.3590739999999997   F   F   F
  0.2999999999999972  0.7999999999999972  0.3590739999999997   F   F   F
  0.3999999999999986  0.0000000000000000  0.2886110000000031   F   F   F
  0.5000000000000000  0.1000000000000014  0.2886110000000031   F   F   F
  0.3999999999999986  0.1000000000000014  0.3590739999999997   F   F   F
  0.5000000000000000  0.0000000000000000  0.3590739999999997   F   F   F
  0.3999999999999986  0.2000000000000028  0.2886110000000031   F   F   F
  0.5000000000000000  0.2999999999999972  0.2886110000000031   F   F   F
  0.3999999999999986  0.2999999999999972  0.3590739999999997   F   F   F
  0.5000000000000000  0.2000000000000028  0.3590739999999997   F   F   F
  0.3999999999999986  0.3999999999999986  0.2886110000000031   F   F   F
  0.5000000000000000  0.5000000000000000  0.2886110000000031   F   F   F
  0.3999999999999986  0.5000000000000000  0.3590739999999997   F   F   F
  0.5000000000000000  0.3999999999999986  0.3590739999999997   F   F   F
  0.3999999999999986  0.6000000000000014  0.2886110000000031   F   F   F
  0.5000000000000000  0.7000000000000028  0.2886110000000031   F   F   F
  0.3999999999999986  0.7000000000000028  0.3590739999999997   F   F   F
  0.5000000000000000  0.6000000000000014  0.3590739999999997   F   F   F
  0.3999999999999986  0.7999999999999972  0.2886110000000031   F   F   F
  0.5000000000000000  0.8999999999999986  0.2886110000000031   F   F   F
  0.3999999999999986  0.8999999999999986  0.3590739999999997   F   F   F
  0.5000000000000000  0.7999999999999972  0.3590739999999997   F   F   F
  0.6000000000000014  0.0000000000000000  0.2886110000000031   F   F   F
  0.7000000000000028  0.1000000000000014  0.2886110000000031   F   F   F
  0.6000000000000014  0.1000000000000014  0.3590739999999997   F   F   F
  0.7000000000000028  0.0000000000000000  0.3590739999999997   F   F   F
  0.6000000000000014  0.2000000000000028  0.2886110000000031   F   F   F
  0.7000000000000028  0.2999999999999972  0.2886110000000031   F   F   F
  0.6000000000000014  0.2999999999999972  0.3590739999999997   F   F   F
  0.7000000000000028  0.2000000000000028  0.3590739999999997   F   F   F
  0.6000000000000014  0.3999999999999986  0.2886110000000031   F   F   F
  0.7000000000000028  0.5000000000000000  0.2886110000000031   F   F   F
  0.6000000000000014  0.5000000000000000  0.3590739999999997   F   F   F
  0.7000000000000028  0.3999999999999986  0.3590739999999997   F   F   F
  0.6000000000000014  0.6000000000000014  0.2886110000000031   F   F   F
  0.7000000000000028  0.7000000000000028  0.2886110000000031   F   F   F
  0.6000000000000014  0.7000000000000028  0.3590739999999997   F   F   F
  0.7000000000000028  0.6000000000000014  0.3590739999999997   F   F   F
  0.6000000000000014  0.7999999999999972  0.2886110000000031   F   F   F
  0.7000000000000028  0.8999999999999986  0.2886110000000031   F   F   F
  0.6000000000000014  0.8999999999999986  0.3590739999999997   F   F   F
  0.7000000000000028  0.7999999999999972  0.3590739999999997   F   F   F
  0.7999999999999972  0.0000000000000000  0.2886110000000031   F   F   F
  0.8999999999999986  0.1000000000000014  0.2886110000000031   F   F   F
  0.7999999999999972  0.1000000000000014  0.3590739999999997   F   F   F
  0.8999999999999986  0.0000000000000000  0.3590739999999997   F   F   F
  0.7999999999999972  0.2000000000000028  0.2886110000000031   F   F   F
  0.8999999999999986  0.2999999999999972  0.2886110000000031   F   F   F
  0.7999999999999972  0.2999999999999972  0.3590739999999997   F   F   F
  0.8999999999999986  0.2000000000000028  0.3590739999999997   F   F   F
  0.7999999999999972  0.3999999999999986  0.2886110000000031   F   F   F
  0.8999999999999986  0.5000000000000000  0.2886110000000031   F   F   F
  0.7999999999999972  0.5000000000000000  0.3590739999999997   F   F   F
  0.8999999999999986  0.3999999999999986  0.3590739999999997   F   F   F
  0.7999999999999972  0.6000000000000014  0.2886110000000031   F   F   F
  0.8999999999999986  0.7000000000000028  0.2886110000000031   F   F   F
  0.7999999999999972  0.7000000000000028  0.3590739999999997   F   F   F
  0.8999999999999986  0.6000000000000014  0.3590739999999997   F   F   F
  0.7999999999999972  0.7999999999999972  0.2886110000000031   F   F   F
  0.8999999999999986  0.8999999999999986  0.2886110000000031   F   F   F
  0.7999999999999972  0.8999999999999986  0.3590739999999997   F   F   F
  0.8999999999999986  0.7999999999999972  0.3590739999999997   F   F   F
  0.0001797207223751  0.9998339806825866  0.5009103675828818   T   T   T
  0.1000766261612454  0.0997844213024642  0.5009301823061239   T   T   T
  0.0000320174660565  0.1000135545621756  0.4295856230724163   T   T   T
  0.1000495744408771  0.9999793716528922  0.4295022782093426   T   T   T
  0.0005305118330655  0.1998614828780715  0.5009987699382159   T   T   T
  0.1001318926359520  0.3000214343358194  0.5008941651367010   T   T   T
  0.0001820339851742  0.2999384694023820  0.4294670196784130   T   T   T
  0.1000731638248925  0.1999399567013872  0.4295353659329930   T   T   T
  0.0004047493645398  0.4000680698198072  0.5009031721917938   T   T   T
  0.1000744878657783  0.5001479104883196  0.5008999688184526   T   T   T
  0.0000469466133931  0.5000225115052347  0.4295463462188489   T   T   T
  0.1000866490768295  0.4000098565033970  0.4295001408533187   T   T   T
  0.0001358294680579  0.6001324695745389  0.5009268024835305   T   T   T
  0.1000206337826651  0.7000919516255207  0.5009116045453225   T   T   T
  0.0000218677590138  0.7000075562965486  0.4295134525395586   T   T   T
  0.0999990030792815  0.6000594365354287  0.4295074492680831   T   T   T
  0.0001329498997105  0.8000153128837417  0.5008904497150398   T   T   T
  0.1000334100419783  0.8999271011626264  0.5009086496838842   T   T   T
  0.0000480212353969  0.8999791430950592  0.4295006742942563   T   T   T
  0.1000051014064923  0.8000130957531855  0.4294946178430370   T   T   T
  0.1999322111072522  0.9998395124014211  0.5009092736239829   T   T   T
  0.2998945119013884  0.0999110499519465  0.5012261322298109   T   T   T
  0.2001024323814555  0.1000618453343632  0.4295885733370801   T   T   T
  0.3000395143564101  0.0000515472999326  0.4295864780417882   T   T   T
  0.1996377609363051  0.1998743760110523  0.5010424107043774   T   T   T
  0.2996984869767671  0.2998714214703557  0.5011702605861619   T   T   T
  0.2000953625894328  0.2998623550717108  0.4295798265493738   T   T   T
  0.3006888033915043  0.1999741874519459  0.4302544234103408   T   T   T
  0.1999212294845829  0.4001052840278027  0.5009016928530239   T   T   T
  0.2997360877475763  0.5001872290070860  0.5008997907999186   T   T   T
  0.1999774995154532  0.5000495725317303  0.4295030413539645   T   T   T
  0.3000343234466669  0.3999038699190853  0.4296135769511401   T   T   T
  0.1999050955496832  0.6001651687048014  0.5009068079241844   T   T   T
  0.2998179550084510  0.7001769327993232  0.5009255805500389   T   T   T
  0.1999514637457520  0.7000576839179433  0.4295052945383767   T   T   T
  0.2998913049791028  0.6001124174208434  0.4295138415288027   T   T   T
  0.1999121879756728  0.8000221130703566  0.5008974762160833   T   T   T
  0.2998232276025831  0.8999078453523255  0.5009096190358270   T   T   T
  0.1999946910408484  0.8999886725784692  0.4294975104909365   T   T   T
  0.2999478310473022  0.7999976967244906  0.4294996036208601   T   T   T
  0.3997676036929611  0.9995309979367427  0.5010057947749167   T   T   T
  0.4996160951593079  0.0993666217171459  0.5005753897543194   T   T   T
  0.3998409412442708  0.1006776873340181  0.4301965850027025   T   T   T
  0.4998055748355559  0.9999330446634154  0.4295405633861854   T   T   T
  0.3986346034706754  0.1994286459941713  0.5051989130826937   T   T   T
  0.4993094391828231  0.3000554974854410  0.5013801477568882   T   T   T
  0.4000264096819461  0.2992778589963865  0.4304686863583395   T   T   T
  0.4990041323168863  0.2002042406289662  0.4303001169468054   T   T   T
  0.3995262850118321  0.4004996081483584  0.5009072233392988   T   T   T
  0.4993894269371614  0.5005161899613912  0.5004564897255375   T   T   T
  0.3998577650080504  0.5002173281057949  0.4295429322629301   T   T   T
  0.4997353074647282  0.3999206781138304  0.4298114420690297   T   T   T
  0.3994244202232801  0.6002648510585504  0.5009676191035957   T   T   T
  0.4998768279573462  0.7001813255040138  0.5010876271584970   T   T   T
  0.3999945621855288  0.6999930260527158  0.4295693375901798   T   T   T
  0.5005199346356877  0.6001351173224525  0.4300772363522741   T   T   T
  0.3998226391118389  0.8000870903599914  0.5008997474772043   T   T   T
  0.4998881322038397  0.8999501282735174  0.5008991203737405   T   T   T
  0.3999301392835077  0.8999436640310601  0.4295155807341017   T   T   T
  0.5000637693579170  0.7999353340414277  0.4295678645893243   T   T   T
  0.6000166676389295  0.9998039524986941  0.5009572193556389   T   T   T
  0.7004308250242888  0.0995815557528410  0.5009522907952183   T   T   T
  0.5999699745847008  0.0999237869813013  0.4296199108054839   T   T   T
  0.7001901729247924  0.0000083748880320  0.4296337357260637   T   T   T
  0.6001819947527891  0.1997968591293618  0.4989893899023988   T   T   T
  0.7000103949547978  0.2995531026364336  0.4993934739630519   T   T   T
  0.5996063131794843  0.2999132673329767  0.4295960010295521   T   T   T
  0.7009469523897718  0.1998423503693748  0.4300379893256386   T   T   T
  0.5997905454394279  0.3998363786892294  0.4994828422861667   T   T   T
  0.7005397712937890  0.5011289150268713  0.5020314995141667   T   T   T
  0.6004018959099848  0.5007015840343159  0.4303445513521283   T   T   T
  0.7003528880159541  0.4004579443236111  0.4299801996758699   T   T   T
  0.5997256847333635  0.6014992024718866  0.5033065999003612   T   T   T
  0.7000670481485338  0.7003886997298617  0.5011011252456193   T   T   T
  0.6000775240566025  0.6994890961384442  0.4300981147554045   T   T   T
  0.6995562848128911  0.5997163448168868  0.4304917350799453   T   T   T
  0.5999700808667866  0.8003996474220353  0.5009849223226062   T   T   T
  0.7001236371295040  0.8999368080529464  0.5009451651142121   T   T   T
  0.6000158422778038  0.9000134984425600  0.4295419014453840   T   T   T
  0.6999616565945548  0.7999484134772121  0.4295784704751255   T   T   T
  0.8002865840240276  0.9996045515796967  0.5010763574814087   T   T   T
  0.9003010742023283  0.0998754164535595  0.5012236035392272   T   T   T
  0.8002418390412720  0.1005158330008823  0.4302344313685744   T   T   T
  0.9000393300600247  0.0000131243919401  0.4295949698711032   T   T   T
  0.8011155262134173  0.1992846143379990  0.5042471452089297   T   T   T
  0.9009155047755147  0.2999653656809151  0.5004223243660291   T   T   T
  0.8002757760110040  0.2996908206820717  0.4300208980411714   T   T   T
  0.8995953507482514  0.1999156765380091  0.4300771105853844   T   T   T
  0.8007735900516134  0.3999969553921954  0.5017684399880542   T   T   T
  0.9004322647672266  0.4999374931537873  0.5011045067897665   T   T   T
  0.7997254334480852  0.4998576705501462  0.4302529940074967   T   T   T
  0.8998044880879338  0.4000795312547790  0.4297695498020002   T   T   T
  0.8005039041841528  0.6001786375030688  0.5012478568608211   T   T   T
  0.9002103778355217  0.7001432615372339  0.5009429756692455   T   T   T
  0.7999423090628417  0.6998857972927829  0.4296476037361263   T   T   T
  0.8999827018146767  0.5999465798107716  0.4296217853216479   T   T   T
  0.8002071530266096  0.8000731586348470  0.5009319040626251   T   T   T
  0.9002274612395460  0.8999122393537969  0.5009217732942129   T   T   T
  0.8000833003731260  0.8999510841353477  0.4295484745230428   T   T   T
  0.9000380441565609  0.7999592120002049  0.4295112621874834   T   T   T
  0.0000000000000000  0.0000000000000000  0.3590739999999997   F   F   F
  0.1000000000000014  0.1000000000000014  0.3590739999999997   F   F   F
  0.0000000000000000  0.1000000000000014  0.2886110000000031   F   F   F
  0.1000000000000014  0.0000000000000000  0.2886110000000031   F   F   F
  0.0000000000000000  0.2000000000000028  0.3590739999999997   F   F   F
  0.1000000000000014  0.2999999999999972  0.3590739999999997   F   F   F
  0.0000000000000000  0.2999999999999972  0.2886110000000031   F   F   F
  0.1000000000000014  0.2000000000000028  0.2886110000000031   F   F   F
  0.0000000000000000  0.3999999999999986  0.3590739999999997   F   F   F
  0.1000000000000014  0.5000000000000000  0.3590739999999997   F   F   F
  0.0000000000000000  0.5000000000000000  0.2886110000000031   F   F   F
  0.1000000000000014  0.3999999999999986  0.2886110000000031   F   F   F
  0.0000000000000000  0.6000000000000014  0.3590739999999997   F   F   F
  0.1000000000000014  0.7000000000000028  0.3590739999999997   F   F   F
  0.0000000000000000  0.7000000000000028  0.2886110000000031   F   F   F
  0.1000000000000014  0.6000000000000014  0.2886110000000031   F   F   F
  0.0000000000000000  0.7999999999999972  0.3590739999999997   F   F   F
  0.1000000000000014  0.8999999999999986  0.3590739999999997   F   F   F
  0.0000000000000000  0.8999999999999986  0.2886110000000031   F   F   F
  0.1000000000000014  0.7999999999999972  0.2886110000000031   F   F   F
  0.2000000000000028  0.0000000000000000  0.3590739999999997   F   F   F
  0.2999999999999972  0.1000000000000014  0.3590739999999997   F   F   F
  0.2000000000000028  0.1000000000000014  0.2886110000000031   F   F   F
  0.2999999999999972  0.0000000000000000  0.2886110000000031   F   F   F
  0.2000000000000028  0.2000000000000028  0.3590739999999997   F   F   F
  0.2999999999999972  0.2999999999999972  0.3590739999999997   F   F   F
  0.2000000000000028  0.2999999999999972  0.2886110000000031   F   F   F
  0.2999999999999972  0.2000000000000028  0.2886110000000031   F   F   F
  0.2000000000000028  0.3999999999999986  0.3590739999999997   F   F   F
  0.2999999999999972  0.5000000000000000  0.3590739999999997   F   F   F
  0.2000000000000028  0.5000000000000000  0.2886110000000031   F   F   F
  0.2999999999999972  0.3999999999999986  0.2886110000000031   F   F   F
  0.2000000000000028  0.6000000000000014  0.3590739999999997   F   F   F
  0.2999999999999972  0.7000000000000028  0.3590739999999997   F   F   F
  0.2000000000000028  0.7000000000000028  0.2886110000000031   F   F   F
  0.2999999999999972  0.6000000000000014  0.2886110000000031   F   F   F
  0.2000000000000028  0.7999999999999972  0.3590739999999997   F   F   F
  0.2999999999999972  0.8999999999999986  0.3590739999999997   F   F   F
  0.2000000000000028  0.8999999999999986  0.2886110000000031   F   F   F
  0.2999999999999972  0.7999999999999972  0.2886110000000031   F   F   F
  0.3999999999999986  0.0000000000000000  0.3590739999999997   F   F   F
  0.5000000000000000  0.1000000000000014  0.3590739999999997   F   F   F
  0.3999999999999986  0.1000000000000014  0.2886110000000031   F   F   F
  0.5000000000000000  0.0000000000000000  0.2886110000000031   F   F   F
  0.3999999999999986  0.2000000000000028  0.3590739999999997   F   F   F
  0.5000000000000000  0.2999999999999972  0.3590739999999997   F   F   F
  0.3999999999999986  0.2999999999999972  0.2886110000000031   F   F   F
  0.5000000000000000  0.2000000000000028  0.2886110000000031   F   F   F
  0.3999999999999986  0.3999999999999986  0.3590739999999997   F   F   F
  0.5000000000000000  0.5000000000000000  0.3590739999999997   F   F   F
  0.3999999999999986  0.5000000000000000  0.2886110000000031   F   F   F
  0.5000000000000000  0.3999999999999986  0.2886110000000031   F   F   F
  0.3999999999999986  0.6000000000000014  0.3590739999999997   F   F   F
  0.5000000000000000  0.7000000000000028  0.3590739999999997   F   F   F
  0.3999999999999986  0.7000000000000028  0.2886110000000031   F   F   F
  0.5000000000000000  0.6000000000000014  0.2886110000000031   F   F   F
  0.3999999999999986  0.7999999999999972  0.3590739999999997   F   F   F
  0.5000000000000000  0.8999999999999986  0.3590739999999997   F   F   F
  0.3999999999999986  0.8999999999999986  0.2886110000000031   F   F   F
  0.5000000000000000  0.7999999999999972  0.2886110000000031   F   F   F
  0.6000000000000014  0.0000000000000000  0.3590739999999997   F   F   F
  0.7000000000000028  0.1000000000000014  0.3590739999999997   F   F   F
  0.6000000000000014  0.1000000000000014  0.2886110000000031   F   F   F
  0.7000000000000028  0.0000000000000000  0.2886110000000031   F   F   F
  0.6000000000000014  0.2000000000000028  0.3590739999999997   F   F   F
  0.7000000000000028  0.2999999999999972  0.3590739999999997   F   F   F
  0.6000000000000014  0.2999999999999972  0.2886110000000031   F   F   F
  0.7000000000000028  0.2000000000000028  0.2886110000000031   F   F   F
  0.6000000000000014  0.3999999999999986  0.3590739999999997   F   F   F
  0.7000000000000028  0.5000000000000000  0.3590739999999997   F   F   F
  0.6000000000000014  0.5000000000000000  0.2886110000000031   F   F   F
  0.7000000000000028  0.3999999999999986  0.2886110000000031   F   F   F
  0.6000000000000014  0.6000000000000014  0.3590739999999997   F   F   F
  0.7000000000000028  0.7000000000000028  0.3590739999999997   F   F   F
  0.6000000000000014  0.7000000000000028  0.2886110000000031   F   F   F
  0.7000000000000028  0.6000000000000014  0.2886110000000031   F   F   F
  0.6000000000000014  0.7999999999999972  0.3590739999999997   F   F   F
  0.7000000000000028  0.8999999999999986  0.3590739999999997   F   F   F
  0.6000000000000014  0.8999999999999986  0.2886110000000031   F   F   F
  0.7000000000000028  0.7999999999999972  0.2886110000000031   F   F   F
  0.7999999999999972  0.0000000000000000  0.3590739999999997   F   F   F
  0.8999999999999986  0.1000000000000014  0.3590739999999997   F   F   F
  0.7999999999999972  0.1000000000000014  0.2886110000000031   F   F   F
  0.8999999999999986  0.0000000000000000  0.2886110000000031   F   F   F
  0.7999999999999972  0.2000000000000028  0.3590739999999997   F   F   F
  0.8999999999999986  0.2999999999999972  0.3590739999999997   F   F   F