Cu 
 1.0000000000000000
    21.1388521970183838    0.0000000000000000    0.0000000000000000
     0.0000000000000000   21.1388521970183838    0.0000000000000000
     0.0000000000000000    0.0000000000000000   22.1138852197018352
  Cu
   2
Direct
  0.4872338846092094  0.4127661215089884  0.6338902304152680
  0.4127660914842022  0.4872339146339956  0.6338902304152680
